 # Version information for this restart file 
 # current date 2021-09-10 16:23:13.220
 # current working dir /projectsp/f_rcr78_1/MW/Hybrid_Perovskite/CsPbBr3/4x4/450K/WC
 # Program compiled at                              Fri Sep 13 14:50:45 EDT 2019
 # Program compiled on                             slepner083.amarel.rutgers.edu
 # Program compiled for                                                    local
 # Source code revision number                                       git:e35496b
 &GLOBAL
   PRINT_LEVEL  LOW
   PROJECT_NAME CPB_WC
   RUN_TYPE  MD
   WALLTIME 47:58:00
 &END GLOBAL
 &MOTION
   &MD
     ENSEMBLE  NVT
     STEPS  5000
     TIMESTEP     9.9999999999999989E-01
     STEP_START_VAL  5299
     TIME_START_VAL     5.2989999999995207E+03
     ECONS_START_VAL    -4.1079533489583409E+03
     TEMPERATURE     4.5000000000000000E+02
     COMVEL_TOL     1.0000000000000000E-08
     &THERMOSTAT
       TYPE  CSVR
       &CSVR
         TIMECON     9.9999999999999986E+01
         &THERMOSTAT_ENERGY
              -5.1235686651142454E-01
         &END THERMOSTAT_ENERGY
         &RNG_INIT
Wiener process for Thermostat # 1        1 F T F  -2.5341660752964079E-01        2916277323.0         482925489.0        3220866550.0        3437839637.0        3443209770.0         696957937.0             12345.0             12345.0             12345.0             12345.0             12345.0             12345.0             12345.0             12345.0             12345.0             12345.0             12345.0             12345.0
         &END RNG_INIT
       &END CSVR
     &END THERMOSTAT
     &AVERAGES  T
       &RESTART_AVERAGES
         ITIMES_START  1
         AVECPU     2.9857098137719652E+02
         AVEHUGONIOT     0.0000000000000000E+00
         AVETEMP_BARO     0.0000000000000000E+00
         AVEPOT    -4.1081760479460427E+03
         AVEKIN     6.8095701852899626E-01
         AVETEMP     4.4938132238878092E+02
         AVEKIN_QM     0.0000000000000000E+00
         AVETEMP_QM     0.0000000000000000E+00
         AVEVOL     9.4099850951374901E+04
         AVECELL_A     4.5484453240405017E+01
         AVECELL_B     4.5484453240405017E+01
         AVECELL_C     4.5484453240405017E+01
         AVEALPHA     9.0000000000000000E+01
         AVEBETA     9.0000000000000000E+01
         AVEGAMMA     9.0000000000000000E+01
         AVE_ECONS    -3.0066535415061263E-01
         AVE_PRESS     0.0000000000000000E+00
         AVE_PXX     0.0000000000000000E+00
       &END RESTART_AVERAGES
     &END AVERAGES
   &END MD
   &PRINT
     &TRAJECTORY  SILENT
       &EACH
         MD  1
       &END EACH
     &END TRAJECTORY
     &VELOCITIES  SILENT
       &EACH
         MD  1
       &END EACH
     &END VELOCITIES
     &FORCES  SILENT
       &EACH
         MD  1
       &END EACH
     &END FORCES
     &STRESS  SILENT
       &EACH
         MD  1
       &END EACH
     &END STRESS
     &RESTART  SILENT
       BACKUP_COPIES  3
       &EACH
         MD  1
       &END EACH
     &END RESTART
     &RESTART_HISTORY  SILENT
       &EACH
         MD  5
       &END EACH
     &END RESTART_HISTORY
   &END PRINT
 &END MOTION
 &FORCE_EVAL
   METHOD  QS
   &DFT
     BASIS_SET_FILE_NAME BASIS_MOLOPT
     POTENTIAL_FILE_NAME GTH_POTENTIALS
     MULTIPLICITY  1
     CHARGE  0
     &SCF
       MAX_SCF  30
       EPS_SCF     1.0000000000000001E-05
       SCF_GUESS  ATOMIC
       &OT  T
         MINIMIZER  DIIS
         PRECONDITIONER  FULL_SINGLE_INVERSE
       &END OT
       &OUTER_SCF  T
         EPS_SCF     1.0000000000000001E-05
         MAX_SCF  10
       &END OUTER_SCF
       &PRINT
         &RESTART  OFF
         &END RESTART
       &END PRINT
     &END SCF
     &QS
       EPS_DEFAULT     1.0000000000000000E-10
       EXTRAPOLATION  ASPC
       METHOD  GPW
     &END QS
     &MGRID
       NGRIDS  4
       CUTOFF     5.0000000000000000E+02
       REL_CUTOFF     9.0000000000000000E+01
     &END MGRID
     &XC
       DENSITY_CUTOFF     1.0000000000000000E-10
       GRADIENT_CUTOFF     1.0000000000000000E-10
       TAU_CUTOFF     1.0000000000000000E-10
       &XC_FUNCTIONAL  NO_SHORTCUT
         &PBE  T
         &END PBE
       &END XC_FUNCTIONAL
     &END XC
     &POISSON
       PERIODIC  XYZ
     &END POISSON
     &LOCALIZE  T
       USE_HISTORY  T
       EPS_LOCALIZATION     1.0000000000000001E-05
       METHOD  JACOBI
       &PRINT
         &WANNIER_CENTERS  SILENT
           IONS+CENTERS  T
         &END WANNIER_CENTERS
         &WANNIER_SPREADS  SILENT
         &END WANNIER_SPREADS
       &END PRINT
     &END LOCALIZE
     &REAL_TIME_PROPAGATION
       INITIAL_WFN  SCF_WFN
     &END REAL_TIME_PROPAGATION
     &PRINT
       &MO_CUBES  SILENT
         WRITE_CUBE  F
         NLUMO  4
         NHOMO  4
         &EACH
           MD  10
         &END EACH
       &END MO_CUBES
       &E_DENSITY_CUBE  OFF
       &END E_DENSITY_CUBE
     &END PRINT
   &END DFT
   &SUBSYS
     &CELL
       A     2.4069336000000000E+01    0.0000000000000000E+00    0.0000000000000000E+00
       B     0.0000000000000000E+00    2.4069336000000000E+01    0.0000000000000000E+00
       C     0.0000000000000000E+00    0.0000000000000000E+00    2.4069336000000000E+01
       MULTIPLE_UNIT_CELL  1 1 1
     &END CELL
     &COORD
Cs    1.1787936110741858E-01    1.3391078541596865E-01    1.2819640488853165E-01
Pb    4.0314390420211144E-03   -9.9961187362894634E-03   -1.3971288077031022E-02
Br   -4.5675466118783514E-03    5.2158064757379463E-03    1.1145216880912684E-01
Br   -9.4069672053246310E-03    1.1723210947495795E-01   -1.8403466305994626E-02
Br    1.3048126332704754E-01   -3.4859491034250845E-02    2.7207100008112314E-02
Cs    3.6223682650188777E-01    1.1820242878434054E-01    1.2278439596948519E-01
Pb    2.5046943111751463E-01    4.3955000232294645E-03    7.1611963412163875E-03
Br    2.7980127891976248E-01   -1.3755103126886933E-02    1.4208989476391548E-01
Br    2.3704312906135219E-01    1.2219005123387487E-01    2.7493961166055216E-02
Br    3.7506226254780006E-01    3.1969575132476322E-03   -3.6620407266906114E-03
Cs    6.4410144775376554E-01    1.2551252774252383E-01    1.2458929803685231E-01
Pb    4.9812558119239697E-01    5.3773956578727538E-03    1.0089174696328765E-02
Br    4.8419614109964226E-01   -3.6271114992415539E-02    1.2162171453967821E-01
Br    5.2992332522140517E-01    1.3076197896384836E-01    2.4508654624301480E-02
Br    6.1980818546938721E-01   -2.0920632356178508E-02    2.4231262790461824E-02
Cs    8.8816797346743004E-01    1.2450546784977304E-01    9.9823212495044319E-02
Pb    7.5364946475969086E-01    6.4208413440658971E-04   -3.9140041739418700E-03
Br    7.7966443873726055E-01    2.8035741440336465E-02    1.1516301112436592E-01
Br    7.3873317494643054E-01    1.2722447091802461E-01   -1.7095897878167763E-02
Br    8.7696516884407694E-01   -2.2300357617466841E-02   -2.0827011528921021E-02
Cs    1.2330322255084027E-01    3.6976481376653381E-01    1.2344392549013516E-01
Pb    4.4847467487718802E-04    2.4663649982543553E-01   -4.0012566117878226E-03
Br    1.4891318083204578E-03    2.4657099166666530E-01    1.1597887792495959E-01
Br    3.3877856769210959E-03    3.8518352139893047E-01   -1.6256950082573458E-02
Br    1.1927945356643507E-01    2.5112556539199987E-01    1.7277292594845700E-02
Cs    3.7386620302794121E-01    3.4788975083008156E-01    1.3931646809217307E-01
Pb    2.4584221537886036E-01    2.4677386667843873E-01    3.6290769466515928E-03
Br    2.7079741631215387E-01    2.2860239004675142E-01    1.2303433081326520E-01
Br    2.8346101555106396E-01    3.5977390431737050E-01   -1.3879150931741862E-03
Br    3.7524468113928378E-01    2.1315884973172888E-01    6.4998581431965378E-03
Cs    6.1851519344410366E-01    3.7425935157868923E-01    1.2596289723561821E-01
Pb    5.0452086284548214E-01    2.4866340980264931E-01    6.5043604200876372E-03
Br    4.9592029238349594E-01    2.6746388972613111E-01    1.3015181334627712E-01
Br    4.7441153596271729E-01    3.7003593869979862E-01   -1.0251942326764235E-02
Br    6.2710480108687428E-01    2.6476835785406494E-01    3.0981251733198944E-02
Cs    8.8481928625982664E-01    3.8404166026060832E-01    1.4030472706559136E-01
Pb    7.4398925537758331E-01    2.4928173146472821E-01    2.1302227923190651E-03
Br    7.7235720036402522E-01    2.2196150873040585E-01    1.1957115914369175E-01
Br    7.7055878509591247E-01    3.8491050943685146E-01    3.2231140494643838E-02
Br    8.7406843100412712E-01    2.4739354296116522E-01   -2.0160497647092372E-02
Cs    1.1940011762592415E-01    5.7987418968717974E-01    1.3739519792854582E-01
Pb    2.0616277627954860E-03    5.0463818776636715E-01    1.1121119829017893E-02
Br   -9.6342716897731846E-03    4.8302317717242438E-01    1.3401586645433250E-01
Br    3.5731560003689031E-02    6.3614697763291661E-01    3.8468823687524703E-02
Br    1.2240866759619122E-01    4.7866799152698331E-01    1.0601288879467020E-02
Cs    3.5618249696374943E-01    6.3885099333791995E-01    1.0313543500768978E-01
Pb    2.5222585173206641E-01    4.9016334982061222E-01    7.1534531643690120E-03
Br    2.4489683831742431E-01    4.7451712904643983E-01    1.4047643576358754E-01
Br    2.3546052973656015E-01    6.1222176224213487E-01    2.8808937472801405E-02
Br    3.7434137175356486E-01    4.8888482517903520E-01   -2.5392624318645684E-03
Cs    6.3380337334061732E-01    6.2332363227519516E-01    9.7670329123458702E-02
Pb    5.0308410911586032E-01    5.0909579658818971E-01    2.5618300637329128E-03
Br    5.0445689521059256E-01    4.7866490387812144E-01    1.2571843079663739E-01
Br    5.0732189321501997E-01    6.2761502315317264E-01    5.4296491076056372E-02
Br    6.3230096968897664E-01    4.9278343310827999E-01    2.3614671712095185E-02
Cs    8.7599627274965530E-01    6.1956746265377227E-01    1.1891423338189007E-01
Pb    7.5489380275464346E-01    4.9090767952444248E-01   -8.5433338395608446E-03
Br    7.5945185529464576E-01    5.2407064983400409E-01    1.2281651913620772E-01
Br    7.3155942450089495E-01    6.3681736336531225E-01   -2.8319068931999272E-02
Br    8.8174324323459374E-01    5.0161844292820901E-01   -5.1236296959842782E-03
Cs    1.4132996853853164E-01    8.6088741347431874E-01    1.3300789098323731E-01
Pb    9.5184954953532359E-03    7.5986482130995303E-01    5.0594550916154583E-03
Br   -8.0386441960411358E-03    7.8821077497971326E-01    1.1561783690625785E-01
Br    6.7973429531384645E-03    8.6956023098309765E-01   -5.2368154990496005E-02
Br    1.3195644198364537E-01    7.5436848436950910E-01    3.3711503553075228E-03
Cs    3.7364970835012484E-01    8.7347403827705550E-01    9.6253631352804431E-02
Pb    2.5641267142569846E-01    7.5611565036743422E-01   -8.4242681618136167E-03
Br    2.5032427620614783E-01    7.6278213680713636E-01    1.3467765056511277E-01
Br    2.6917847512524984E-01    8.6959496443013673E-01   -3.5424869915315078E-02
Br    3.8310166211692487E-01    7.2325435795127502E-01   -1.4855069375338845E-02
Cs    6.3269914716489739E-01    8.5601262068598838E-01    1.1710006497667737E-01
Pb    5.0225377394637183E-01    7.4796125991115558E-01    1.0658199747696270E-02
Br    4.9049213768825145E-01    7.7988673096675509E-01    1.3159676022021069E-01
Br    5.0365938341429117E-01    8.8037241446679038E-01   -2.9687641801940723E-02
Br    6.2645469253342723E-01    7.6345134709116513E-01   -1.3998734902799162E-02
Cs    8.7546816983054265E-01    8.8452149301073557E-01    1.1898374058369406E-01
Pb    7.6390343652349335E-01    7.4274233594276129E-01   -2.3421624076594505E-03
Br    7.7306221832573896E-01    7.2032667406374085E-01    1.1278522974542828E-01
Br    7.5675364269880729E-01    8.8218208544095489E-01    3.3304225351255698E-02
Br    8.8131334460524058E-01    7.3667608658989681E-01   -9.9823283552555285E-03
Cs    1.1698235262069001E-01    1.3607064935238275E-01    3.6135432016616542E-01
Pb   -4.8052059481684369E-03   -2.6551095995115022E-03    2.5157911925214937E-01
Br    5.6475001606445634E-02    2.8704184222187908E-03    3.4793586033958623E-01
Br   -1.8388882125323785E-03    1.1746379571715881E-01    2.4548639830868976E-01
Br    1.3685014265410331E-01   -9.4111390416560265E-03    1.9285295983856290E-01
Cs    3.6907176595135754E-01    1.2694909437964108E-01    3.6161149040568036E-01
Pb    2.4330378950392029E-01   -1.4545099354321991E-02    2.5535298571659981E-01
Br    2.2700707454733093E-01    2.7368311189128882E-02    3.8102492788954717E-01
Br    2.3792764592205598E-01    1.2042408323355588E-01    2.6571667060957360E-01
Br    3.8123513911478901E-01    1.5475698106972272E-03    2.9137203396787581E-01
Cs    6.3083760818609413E-01    1.3886108325706159E-01    3.7376911964541387E-01
Pb    5.1290863744576276E-01   -1.3918066555999501E-02    2.5280252592891927E-01
Br    5.4326556625846811E-01    1.6176720861481229E-02    3.7291916944624726E-01
Br    5.0301272667561869E-01    1.1956186858772705E-01    2.1263552970602045E-01
Br    6.3339899124772525E-01   -4.5156898957360086E-03    2.3853927418661178E-01
Cs    8.6946422787292865E-01    1.2900985721366778E-01    3.5109661870973746E-01
Pb    7.6027553906945733E-01    4.6844930217669950E-03    2.3900694984079457E-01
Br    7.4878638249150653E-01    1.4705862825664193E-03    3.6744956437982346E-01
Br    7.2797776028404015E-01    1.2915807026780274E-01    2.5496095203420582E-01
Br    8.7546169072488611E-01    4.4271628334070735E-03    2.6719795531557677E-01
Cs    1.0888373284943950E-01    3.7421201168114121E-01    3.7692984472540592E-01
Pb    1.6875634646227786E-03    2.4617302189712434E-01    2.4384575174576129E-01
Br    1.3575768564856934E-02    2.3751501236443429E-01    3.7026161277843944E-01
Br   -1.1668869159123159E-02    3.7174342531360927E-01    2.6880868337016722E-01
Br    1.2632018679237222E-01    2.5392453117662889E-01    2.2388204477323326E-01
Cs    3.8640965200697874E-01    3.6250554004218677E-01    3.7201441161676563E-01
Pb    2.4485859926135745E-01    2.3744763821860201E-01    2.5003470044998971E-01
Br    2.2085994871100570E-01    2.2053123501926472E-01    3.8167097512150411E-01
Br    2.3387484708070799E-01    3.6704990640447982E-01    2.8008006113188577E-01
Br    3.7293435603987524E-01    2.4155062133522007E-01    2.5853704766507102E-01
Cs    6.2136381198580637E-01    3.7858593626299125E-01    3.7510954283520231E-01
Pb    5.0948720102793321E-01    2.3984385915674103E-01    2.4529648087213529E-01
Br    4.9320686222466642E-01    2.3546422119313498E-01    3.7783023021259199E-01
Br    4.8752798969004857E-01    3.7413794059025712E-01    2.6218302683655215E-01
Br    6.2907686337251667E-01    2.6264794194853636E-01    2.5387058789150624E-01
Cs    8.9615734993218943E-01    3.8473501339582322E-01    3.8538401759335555E-01
Pb    7.5774512807161121E-01    2.5485801133720243E-01    2.4644877734643758E-01
Br    7.4482842255562365E-01    2.7231125718407345E-01    3.6638197043681042E-01
Br    7.6213236105461990E-01    3.8159418919604371E-01    2.2121267160229555E-01
Br    8.7312257451690467E-01    2.3962519474159738E-01    2.3536827097793875E-01
Cs    1.1412895747665841E-01    6.3774217096950858E-01    3.8637381522986475E-01
Pb   -4.1372317610677964E-03    4.9211613463296211E-01    2.6703965900980398E-01
Br    2.9510828299047030E-02    4.9519046399831312E-01    3.8626387018483860E-01
Br    1.6347311817810257E-02    6.1995102162494586E-01    2.7901399516963443E-01
Br    1.1360095305912048E-01    4.5889497602969043E-01    2.4215483300127771E-01
Cs    4.1179552950855430E-01    6.3614922728093848E-01    4.0276966931122909E-01
Pb    2.3529413495546381E-01    4.8810704479514849E-01    2.7130399821702239E-01
Br    2.0014278341274105E-01    5.0256477317789938E-01    3.9526983039450114E-01
Br    2.2609266837240996E-01    6.1449744474086632E-01    2.2889400678255042E-01
Br    3.6224101822398064E-01    5.0105927077487034E-01    2.6492907919358416E-01
Cs    6.2415205128031714E-01    5.8570702901877603E-01    3.8606886110279609E-01
Pb    4.9121560278297810E-01    4.9806971335932188E-01    2.5989704817422787E-01
Br    5.0842097226124672E-01    5.0164091673715550E-01    3.8457146013836319E-01
Br    5.0212913348676058E-01    6.1416452389512755E-01    2.5106848522666836E-01
Br    6.2662359135435741E-01    4.7255839197015692E-01    2.5609304584937326E-01
Cs    8.6364271062216258E-01    6.4225545690327557E-01    3.7593927609321526E-01
Pb    7.5268707668767487E-01    5.0041847402608097E-01    2.4079626889688377E-01
Br    7.5935119532380535E-01    4.9399420747832051E-01    3.6940135864405732E-01
Br    7.3971059747373957E-01    6.2987969340479100E-01    2.6477834083966495E-01
Br    8.7616724428413040E-01    5.0413760237433547E-01    2.5641683174578983E-01
Cs    1.1006060798899729E-01    8.8219702369905006E-01    3.8458387564454705E-01
Pb   -7.2021008762074585E-03    7.4256813996308135E-01    2.4517163238025111E-01
Br   -3.4765926507427471E-02    7.4918782720984467E-01    3.6728758928580701E-01
Br   -1.8089831717400497E-02    8.6118498868240345E-01    2.6137879732154379E-01
Br    1.2089593392629437E-01    7.5322902905311950E-01    2.7805804317050797E-01
Cs    3.8239420310657091E-01    8.7957695775934830E-01    3.7347396847194503E-01
Pb    2.4608317466217206E-01    7.3278965548660335E-01    2.5916282955106285E-01
Br    2.6139294713742106E-01    6.9745544040055418E-01    3.7853764175771543E-01
Br    2.2640073682182582E-01    8.7479044268663664E-01    2.9306372622671939E-01
Br    3.7595706885363506E-01    7.4747425570663417E-01    2.5343681476379071E-01
Cs    6.3906692730707060E-01    8.9722852787050711E-01    4.0558488533434917E-01
Pb    4.9624263865361001E-01    7.3749632677693555E-01    2.5102482953479877E-01
Br    5.0456113083346610E-01    7.3161927068856880E-01    3.7215582492800120E-01
Br    5.1437885030348718E-01    8.6856728821604934E-01    2.8461397444720921E-01
Br    6.2512149086923874E-01    7.3716282358771867E-01    2.0454032410615547E-01
Cs    8.7413889713283133E-01    8.7549662419422125E-01    3.7014535888383554E-01
Pb    7.4891631330564890E-01    7.5482433264632887E-01    2.3640771683731918E-01
Br    7.4161774402223002E-01    7.5129264631607573E-01    3.6701180369828323E-01
Br    7.5551335993790447E-01    8.8069869591677596E-01    2.3971837675083446E-01
Br    8.6650130220429278E-01    7.2023198829700052E-01    2.2824731318120900E-01
Cs    1.2720916443459671E-01    1.2916956539989244E-01    6.3051750237516013E-01
Pb    6.3241758156654324E-03   -1.9060936353525746E-03    5.0058919114980527E-01
Br   -2.4819600150717873E-02   -2.0391317817969826E-02    6.1616279519074357E-01
Br    3.3055080177030488E-02    1.1818395931799332E-01    5.1531113829733388E-01
Br    1.3097093601577006E-01   -3.1110735747834552E-02    5.3530335174808863E-01
Cs    3.7329902788035180E-01    1.3535779151049440E-01    6.1315585677690598E-01
Pb    2.4599937452363557E-01    1.8303514839006641E-03    4.9295851481480119E-01
Br    2.8337813014509178E-01   -1.0153893297290282E-02    6.1857092411193282E-01
Br    2.2469991145581358E-01    1.2717736778780753E-01    5.1730153443573534E-01
Br    3.8965413305195085E-01    1.3194933219349701E-02    4.4870953454327661E-01
Cs    6.2983893945088099E-01    1.3553332082706238E-01    6.2667629863523144E-01
Pb    5.1134605704728087E-01    1.3146231628400503E-02    4.9721255146074556E-01
Br    4.8240292458564360E-01    4.2349085451140016E-02    6.2918258486980516E-01
Br    5.3986348794535721E-01    1.3173658211268377E-01    5.0075052858540559E-01
Br    6.4075975247993799E-01   -3.6961405953883212E-03    5.2934212912122569E-01
Cs    8.9825605748934978E-01    1.2252609546106027E-01    6.0858047115602787E-01
Pb    7.6692669776189948E-01    1.4652420012816284E-02    5.0180269862475602E-01
Br    8.0376903771679364E-01    1.1426242565561153E-02    6.2855757871395956E-01
Br    7.5364200382309388E-01    1.3124356068466461E-01    4.6778362374616211E-01
Br    8.8205196110311290E-01    1.9388642195031190E-02    4.7290301102477944E-01
Cs    1.2452703412094815E-01    3.7671996364076155E-01    6.3509870078789465E-01
Pb   -3.6663267130334666E-03    2.3775669232832999E-01    4.9835094658790025E-01
Br   -2.4411526759781123E-02    2.3978760213236566E-01    6.2114959029470318E-01
Br   -2.8412812605163387E-02    3.7658290572539427E-01    5.1951115267378123E-01
Br    1.0893562839542313E-01    2.8375672831609661E-01    5.1867659960833401E-01
Cs    3.4410919962652375E-01    3.6074586731606784E-01    6.6161469346302870E-01
Pb    2.2860544730744717E-01    2.5134099334603521E-01    4.9918105754736292E-01
Br    2.4167012432828927E-01    2.8112520356317872E-01    6.3276247714346601E-01
Br    2.4024431445310176E-01    3.7682644456446335E-01    4.9323535489752957E-01
Br    3.7846697616413361E-01    2.4858501095705327E-01    4.8922430768684544E-01
Cs    6.3452044762797899E-01    3.9262654087969884E-01    6.1176838814054257E-01
Pb    5.0015918862905306E-01    2.4491988025452788E-01    5.0488805168643192E-01
Br    4.9599357792375914E-01    2.4448581502280720E-01    6.3353455487083432E-01
Br    5.1976360130557375E-01    3.6725600636145650E-01    4.9810390647001740E-01
Br    6.4399618844313811E-01    2.7278040137383119E-01    5.1772849334060012E-01
Cs    8.7510175174110438E-01    3.7094395685986364E-01    6.4321206687304722E-01
Pb    7.5462299580453907E-01    2.5927250134355728E-01    4.9454475608794118E-01
Br    7.7165211157298219E-01    2.5798913152423225E-01    6.2470129655745044E-01
Br    7.8379640203468226E-01    3.7572234675907534E-01    4.8747162716179282E-01
Br    8.8771040705472370E-01    1.9510817158756988E-01    4.9105029757202828E-01
Cs    1.1987218431025368E-01    6.1560534226969166E-01    6.4485925965457469E-01
Pb    2.5532238250205196E-03    4.9725449953900869E-01    5.1694121882165156E-01
Br   -3.5142318715274193E-02    5.0537141771143834E-01    6.3220779911894887E-01
Br   -4.5869473613715820E-03    6.2237577084238238E-01    5.2229187309802427E-01
Br    1.2375083717037673E-01    5.0244534945575470E-01    5.4975203230922554E-01
Cs    3.9644268457423720E-01    6.4172062384006090E-01    6.4119223892623245E-01
Pb    2.4389231261076919E-01    5.2179366777532277E-01    5.1894695932153501E-01
Br    2.5564226552010155E-01    4.8031625168281600E-01    6.3840532987286658E-01
Br    2.2540432447475045E-01    6.3637240527259720E-01    5.4559625562987280E-01
Br    3.5659921406337974E-01    5.0491505751578347E-01    4.6238532599933568E-01
Cs    6.3595500690292850E-01    6.4818938059782538E-01    6.2370786545428181E-01
Pb    4.8088852940795834E-01    4.8238369394092012E-01    4.9484234888818451E-01
Br    4.7390133410034119E-01    5.0211993924374709E-01    6.3132271218166891E-01
Br    5.1461510388285892E-01    6.1902657595970279E-01    5.1028795217286560E-01
Br    6.3700983946430889E-01    4.7541746925547806E-01    4.9898266265127067E-01
Cs    8.6516899482617937E-01    6.2675754329672473E-01    6.1121531873536739E-01
Pb    7.5973110189307180E-01    5.0391015532130135E-01    4.9229170817971885E-01
Br    7.5596205360003899E-01    5.0863619236410507E-01    6.1062865202089833E-01
Br    7.3112708510038782E-01    6.2686994421399034E-01    4.8089345993601235E-01
Br    8.8070760299817752E-01    5.2582337537538137E-01    4.7006287203170843E-01
Cs    9.8089959710542365E-02    8.6960705495891233E-01    6.2348940106552175E-01
Pb   -9.1469647536650059E-03    7.4599673204853545E-01    4.8855146917834891E-01
Br    4.0555508950270349E-03    7.5935813405229302E-01    6.1396645574308717E-01
Br   -7.8056533496828704E-03    8.7471709026433297E-01    4.6573199006834043E-01
Br    1.1477683177503499E-01    7.7588963130791821E-01    5.0130844343806380E-01
Cs    3.6891258321592524E-01    8.5200216315845967E-01    5.9884568298168783E-01
Pb    2.4461760967643972E-01    7.5163343013207262E-01    4.9852523484855066E-01
Br    2.2967802747572957E-01    7.7670938022540958E-01    6.3192136499608675E-01
Br    2.7461368760371957E-01    8.7965820296784658E-01    4.8726133169084451E-01
Br    3.6869540531685291E-01    7.5167103111260425E-01    5.0508653286532434E-01
Cs    6.3945472125176683E-01    8.8725800782151276E-01    6.4984279143952262E-01
Pb    5.0606435435675468E-01    7.4849279823704884E-01    4.9879494571576533E-01
Br    5.1174562440008942E-01    7.5104551748125581E-01    6.2299375082397146E-01
Br    5.0651744862943615E-01    8.8307196233731766E-01    4.8456064888923905E-01
Br    6.2404115839508567E-01    7.3460960066057113E-01    5.1472379413837777E-01
Cs    8.8514670721294386E-01    8.5480995001920246E-01    6.0318860307345890E-01
Pb    7.4217680094674487E-01    7.5116949974456104E-01    4.8547634481254209E-01
Br    7.5407785576864783E-01    7.5147409903803408E-01    6.1109780747781839E-01
Br    7.8487124630551708E-01    8.7956036011694450E-01    4.9434480343476839E-01
Br    8.6555755046570826E-01    7.3726195085657420E-01    5.1445756929270026E-01
Cs    1.3291754226971103E-01    1.3072648134154505E-01    8.5326216157893664E-01
Pb   -7.1950971583359920E-03    4.6480940377810250E-03    7.4790925152698162E-01
Br    1.3754498333804545E-02    9.5999007328368049E-03    8.6478207154774667E-01
Br    1.1352261311070354E-02    1.2696526568992542E-01    7.5329944171220387E-01
Br    1.0902294912188003E-01   -8.4865457595852591E-03    7.2681088018410422E-01
Cs    3.5964140197037336E-01    1.1586123824894692E-01    8.8143758122640292E-01
Pb    2.4166195173611818E-01    4.8084655860525247E-03    7.3523870180627804E-01
Br    2.2116246983734048E-01    2.1841368284213371E-02    8.7934619084614696E-01
Br    2.4258156166845504E-01    1.4015562876691115E-01    7.3299113620857137E-01
Br    3.5812687252602776E-01    2.8000655559291369E-02    7.6397598242997566E-01
Cs    5.9181688385686138E-01    1.1616865225139539E-01    8.7152382369761416E-01
Pb    4.9287704965937679E-01   -1.4085536079244375E-03    7.4668958524607498E-01
Br    5.2489077748812030E-01   -1.7279439355276292E-02    8.7055585026686844E-01
Br    4.9739185741660125E-01    1.2153876823390493E-01    7.7915933431737949E-01
Br    6.1619225329932781E-01   -2.8055809777834057E-03    7.3673143202087499E-01
Cs    8.5999739664538910E-01    1.4510359505373488E-01    8.7001144864617286E-01
Pb    7.6126531200386316E-01    1.3380585588911868E-02    7.4435524777082862E-01
Br    7.3180283447247485E-01   -4.0526893538108703E-03    8.5481146182093004E-01
Br    7.3102148277369572E-01    1.3683329415408690E-01    7.5594549189215343E-01
Br    8.6625775488704870E-01    3.3465326887418614E-02    7.7804735057098684E-01
Cs    1.1295475888088372E-01    3.7607822023379645E-01    8.8860363146426224E-01
Pb   -3.7129100489466053E-03    2.5699253587141363E-01    7.5082273562767199E-01
Br    3.0343643820429050E-03    2.5122114353396668E-01    8.7566492227028703E-01
Br    1.0748133413848017E-03    3.8129536398828728E-01    7.4408950894687143E-01
Br    1.1874456350774749E-01    2.5597318074114878E-01    7.5694851427823850E-01
Cs    3.7286345623283479E-01    3.5226716919895990E-01    8.7310514762209224E-01
Pb    2.4146010579968910E-01    2.5282647409162207E-01    7.6105768927267969E-01
Br    2.4240306483306148E-01    2.3486547843207775E-01    8.8594514844714267E-01
Br    2.4388362017544821E-01    3.8177499189078218E-01    7.7724529316699642E-01
Br    3.7528331749545779E-01    2.5361261712804012E-01    7.4651512739917580E-01
Cs    6.1378816834351624E-01    3.7810137555902229E-01    8.7182030277601441E-01
Pb    5.0296832448503570E-01    2.5732869131585084E-01    7.5300120064846954E-01
Br    4.9572049720021405E-01    2.5221679477769038E-01    8.8266148594984140E-01
Br    4.7961363423023107E-01    3.7290958055071594E-01    7.7765010810933999E-01
Br    6.1668037404585496E-01    2.8855441632078260E-01    7.3811380796575843E-01
Cs    8.7999651253372102E-01    3.8519343799141242E-01    8.9390176291949486E-01
Pb    7.4257456328164473E-01    2.5505036348104765E-01    7.4932474820329731E-01
Br    7.5935850921376302E-01    2.6359259479444402E-01    8.7823638452495689E-01
Br    7.4033874859362392E-01    3.8467859716717173E-01    7.4279737581506433E-01
Br    8.7380766271733001E-01    2.5511643586954741E-01    7.6079076195379336E-01
Cs    1.1818094505319540E-01    6.2758903506959784E-01    8.9011667009241990E-01
Pb   -9.2924225809538821E-03    5.1039484465720197E-01    7.5876439130124462E-01
Br    1.3590557943082173E-02    5.1892571657232323E-01    8.8021268990449653E-01
Br   -9.6335336573860047E-03    6.2171324104191228E-01    7.2722993346978759E-01
Br    1.2538074642306446E-01    5.2390369032036022E-01    7.6587827553854215E-01
Cs    3.6731915059295944E-01    6.1165454067910741E-01    8.7523436658723319E-01
Pb    2.5181498417186965E-01    5.1155067281945754E-01    7.5741322935217414E-01
Br    2.4408643626578488E-01    5.2707125148842116E-01    8.8901694871084702E-01
Br    2.7439521507547160E-01    6.2904257518287787E-01    7.1904495349856745E-01
Br    3.6761518360639339E-01    4.8341508732856076E-01    7.7849101931991860E-01
Cs    6.3517459876787574E-01    6.2967037916796120E-01    8.6652448799046744E-01
Pb    4.8397217630438377E-01    5.0050742051141783E-01    7.4995941546904166E-01
Br    5.2939557975754692E-01    5.1968842347586164E-01    8.7409349901531630E-01
Br    4.8955143699069265E-01    6.3213757722367259E-01    7.5331183992053652E-01
Br    6.1994694491638191E-01    4.9885811178884071E-01    7.1050470879574645E-01
Cs    8.6931974836218018E-01    6.1444243893125972E-01    8.8216329781359948E-01
Pb    7.4609943935454115E-01    5.0202406950047518E-01    7.3607546076564512E-01
Br    7.3128386096787557E-01    4.7630037506691564E-01    8.6881673890359967E-01
Br    7.4230792288424796E-01    6.1780983763177089E-01    7.7481441244558635E-01
Br    8.6949892705896015E-01    4.8720146191148689E-01    7.7937981272851087E-01
Cs    1.3090180086775807E-01    8.7547579848228740E-01    8.6200877495511752E-01
Pb   -7.5019818280964269E-03    7.5249648931920254E-01    7.3709403605074608E-01
Br   -8.8191561328656159E-03    7.2404989313642176E-01    8.5595208547421309E-01
Br   -2.8448336633549433E-02    8.8096506120001128E-01    7.4873834605789036E-01
Br    1.2222179908573276E-01    7.6985178754650607E-01    7.5803976261010897E-01