&GLOBAL
  ! the project name is made part of most output files... useful to keep order 
  PROJECT CPB_WC
  ! various runtypes (energy, geo_opt, etc.) available.
  RUN_TYPE MD           
  ! limit the runs to 5min
  !  WALLTIME 1800
  WALLTIME 47:58:00
  ! reduce the amount of IO
  IOLEVEL  LOW 
&END GLOBAL

&FORCE_EVAL
  ! the electronic structure part of CP2K is named Quickstep
  METHOD Quickstep
  &DFT
    ! basis sets and pseudopotential files
    BASIS_SET_FILE_NAME BASIS_MOLOPT
    POTENTIAL_FILE_NAME GTH_POTENTIALS            

    ! Charge and multiplicity
    CHARGE 0
    MULTIPLICITY 1

    &MGRID
      NGRIDS 4
      CUTOFF 500
      REL_CUTOFF 90
    &END MGRID

    &QS
       ! use the GPW method (i.e. pseudopotential based calculations with the Gaussian and Plane Waves scheme).
       METHOD GPW 
       ! default threshold for numerics ~ roughly numerical accuracy of the total energy per electron,
       ! sets reasonable values for all other thresholds.
       EPS_DEFAULT 1.0E-10 
       ! used for MD, the method used to generate the initial guess.
       EXTRAPOLATION ASPC 
    &END

    &POISSON
       PERIODIC XYZ ! the default, gas phase systems should have 'NONE' and a wavelet solver
    &END

    &PRINT
       ! at the end of the SCF procedure generate cube files of the density
       &E_DENSITY_CUBE OFF
       &END E_DENSITY_CUBE
       ! compute eigenvalues and homo-lumo gap each 10nd MD step
       &MO_CUBES
          NLUMO 4
          NHOMO 4
          WRITE_CUBE .FALSE.
          &EACH
            MD 10
          &END
       &END
    &END

    ! use the OT METHOD for robust and efficient SCF, suitable for all non-metallic systems.
    &SCF  
      SCF_GUESS ATOMIC
      EPS_SCF 1.0E-5
      MAX_SCF 30
!      ADDED_MOS 20
!      CHOLESKY INVERSE
!      &SMEAR ON
!        METHOD FERMI_DIRAC
!        ELECTRONIC_TEMPERATURE [K] 300
!      &END SMEAR
!      &DIAGONALIZATION
!        ALGORITHM STANDARD
!      &END DIAGONALIZATION
!      &MIXING
!        METHOD BROYDEN_MIXING
!        ALPHA 0.4
!        BETA 0.6
!        NBROYDEN 8
!      &END MIXING                            
      &OT
        ! an accurate preconditioner suitable also for larger systems
        PRECONDITIONER FULL_SINGLE_INVERSE
        ! the most robust choice (DIIS might sometimes be faster, but not as stable).
        MINIMIZER DIIS
      &END OT
      &OUTER_SCF ! repeat the inner SCF cycle 10 times
        MAX_SCF 10
        EPS_SCF 1.0E-5 ! must match the above
      &END
      ! do not store the wfn during MD
      &PRINT
        &RESTART OFF
        &END
      &END
    &END SCF

    ! specify the exchange and correlation treatment
    &XC
      ! use SCAN functional 
      &XC_FUNCTIONAL 
         &PBE
	 &END PBE
      &END XC_FUNCTIONAL
    &END XC
    
    ! Calculate the maximally localized Wannier functions
    &LOCALIZE
      METHOD JACOBI
      EPS_LOCALIZATION 1.0E-5
      &PRINT
        ! Output the Wannier functions as cube-files
!        &WANNIER_CUBES
!        &END
	&WANNIER_SPREADS
        &END
	! Output the centers of all Wannier functions as xyz-file
        &WANNIER_CENTERS
           IONS+CENTERS .TRUE.
        &END
      &END
    &END
  &END DFT
 
  ! description of the system
  &SUBSYS
    &KIND Cs
      ELEMENT   Cs
      BASIS_SET DZVP-MOLOPT-SR-GTH-q9
      POTENTIAL GTH-PBE-q9
    &END KIND
    &KIND Pb
      ELEMENT   Pb
      BASIS_SET DZVP-MOLOPT-SR-GTH-q4
      POTENTIAL GTH-PBE-q4
    &END KIND
    &KIND Br
      ELEMENT   Br
      BASIS_SET DZVP-MOLOPT-SR-GTH-q7
      POTENTIAL GTH-PBE-q7
    &END KIND
    &CELL
      A     6.017334000    0.000000000    0.000000000
      B     0.000000000    6.017334000    0.000000000
      C     0.000000000    0.000000000    6.017334000
      MULTIPLE_UNIT_CELL 4 4 4
    &END CELL
    &COORD 
      SCALED
      Cs     0.500000000         0.500000000         0.500000000
      Pb     0.000000000         0.000000000         0.000000000
      Br     0.000000000         0.000000000         0.500000000
      Br     0.000000000         0.500000000         0.000000000
      Br     0.500000000         0.000000000         0.000000000
    &END COORD
    &TOPOLOGY
     MULTIPLE_UNIT_CELL 4 4 4
    &END TOPOLOGY
  &END SUBSYS
&END FORCE_EVAL

! how to propagate the system, selection via RUN_TYPE in the &GLOBAL section
&MOTION
&MD
   ENSEMBLE NVT  ! sampling the canonical ensemble, accurate properties might need NVE
   TEMPERATURE [K] 450
   TIMESTEP [fs] 1.0
   COMVEL_TOL 1.0E-8
   STEPS 5000
   TIME_START_VAL 0  !!! Change this later
   &THERMOSTAT
    TYPE CSVR
    &CSVR
     TIMECON 100
    &END CSVR
   &END THERMOSTAT
 &END
  &PRINT
   &TRAJECTORY
     &EACH
       MD 1
     &END EACH
   &END TRAJECTORY
   &VELOCITIES
     &EACH
       MD 1
     &END EACH
   &END VELOCITIES
   &FORCES
     &EACH
       MD 1
     &END EACH
   &END FORCES

   &STRESS
     &EACH
       MD 1
     &END EACH
   &END STRESS

   &RESTART_HISTORY
     &EACH
       MD 5
     &END EACH
   &END RESTART_HISTORY
   &RESTART
     BACKUP_COPIES 3
     &EACH
       MD 1
     &END EACH
   &END RESTART
  &END PRINT
&END

&EXT_RESTART
  RESTART_FILE_NAME CPB_WC-1.restart
&END