 # Version information for this restart file 
 # current date 2021-09-10 16:39:46.015
 # current working dir /projectsp/f_rcr78_1/MW/Hybrid_Perovskite/CsPbBr3/4x4/450K/WC
 # Program compiled at                              Fri Sep 13 14:50:45 EDT 2019
 # Program compiled on                             slepner083.amarel.rutgers.edu
 # Program compiled for                                                    local
 # Source code revision number                                       git:e35496b
 &GLOBAL
   PRINT_LEVEL  LOW
   PROJECT_NAME CPB_WC
   RUN_TYPE  MD
   WALLTIME 47:58:00
 &END GLOBAL
 &MOTION
   &MD
     ENSEMBLE  NVT
     STEPS  5000
     TIMESTEP     9.9999999999999989E-01
     STEP_START_VAL  5300
     TIME_START_VAL     5.2999999999995207E+03
     ECONS_START_VAL    -4.1079533489583409E+03
     TEMPERATURE     4.5000000000000000E+02
     COMVEL_TOL     1.0000000000000000E-08
     &THERMOSTAT
       TYPE  CSVR
       &CSVR
         TIMECON     9.9999999999999986E+01
         &THERMOSTAT_ENERGY
              -5.1074583094420001E-01
         &END THERMOSTAT_ENERGY
         &RNG_INIT
Wiener process for Thermostat # 1        1 F T F  -9.2008576900499828E-01        2072892445.0        1078475498.0        1695974985.0        3695151447.0        3360914650.0        3077243540.0             12345.0             12345.0             12345.0             12345.0             12345.0             12345.0             12345.0             12345.0             12345.0             12345.0             12345.0             12345.0
         &END RNG_INIT
       &END CSVR
     &END THERMOSTAT
     &AVERAGES  T
       &RESTART_AVERAGES
         ITIMES_START  1
         AVECPU     2.9870196848966896E+02
         AVEHUGONIOT     0.0000000000000000E+00
         AVETEMP_BARO     0.0000000000000000E+00
         AVEPOT    -4.1081760483638800E+03
         AVEKIN     6.8096675486448066E-01
         AVETEMP     4.4938774765086958E+02
         AVEKIN_QM     0.0000000000000000E+00
         AVETEMP_QM     0.0000000000000000E+00
         AVEVOL     9.4099850951374901E+04
         AVECELL_A     4.5484453240405017E+01
         AVECELL_B     4.5484453240405017E+01
         AVECELL_C     4.5484453240405017E+01
         AVEALPHA     9.0000000000000000E+01
         AVEBETA     9.0000000000000000E+01
         AVEGAMMA     9.0000000000000000E+01
         AVE_ECONS    -3.0118576297844984E-01
         AVE_PRESS     0.0000000000000000E+00
         AVE_PXX     0.0000000000000000E+00
       &END RESTART_AVERAGES
     &END AVERAGES
   &END MD
   &PRINT
     &TRAJECTORY  SILENT
       &EACH
         MD  1
       &END EACH
     &END TRAJECTORY
     &VELOCITIES  SILENT
       &EACH
         MD  1
       &END EACH
     &END VELOCITIES
     &FORCES  SILENT
       &EACH
         MD  1
       &END EACH
     &END FORCES
     &STRESS  SILENT
       &EACH
         MD  1
       &END EACH
     &END STRESS
     &RESTART  SILENT
       BACKUP_COPIES  3
       &EACH
         MD  1
       &END EACH
     &END RESTART
     &RESTART_HISTORY  SILENT
       &EACH
         MD  5
       &END EACH
     &END RESTART_HISTORY
   &END PRINT
 &END MOTION
 &FORCE_EVAL
   METHOD  QS
   &DFT
     BASIS_SET_FILE_NAME BASIS_MOLOPT
     POTENTIAL_FILE_NAME GTH_POTENTIALS
     MULTIPLICITY  1
     CHARGE  0
     &SCF
       MAX_SCF  30
       EPS_SCF     1.0000000000000001E-05
       SCF_GUESS  ATOMIC
       &OT  T
         MINIMIZER  DIIS
         PRECONDITIONER  FULL_SINGLE_INVERSE
       &END OT
       &OUTER_SCF  T
         EPS_SCF     1.0000000000000001E-05
         MAX_SCF  10
       &END OUTER_SCF
       &PRINT
         &RESTART  OFF
         &END RESTART
       &END PRINT
     &END SCF
     &QS
       EPS_DEFAULT     1.0000000000000000E-10
       EXTRAPOLATION  ASPC
       METHOD  GPW
     &END QS
     &MGRID
       NGRIDS  4
       CUTOFF     5.0000000000000000E+02
       REL_CUTOFF     9.0000000000000000E+01
     &END MGRID
     &XC
       DENSITY_CUTOFF     1.0000000000000000E-10
       GRADIENT_CUTOFF     1.0000000000000000E-10
       TAU_CUTOFF     1.0000000000000000E-10
       &XC_FUNCTIONAL  NO_SHORTCUT
         &PBE  T
         &END PBE
       &END XC_FUNCTIONAL
     &END XC
     &POISSON
       PERIODIC  XYZ
     &END POISSON
     &LOCALIZE  T
       USE_HISTORY  T
       EPS_LOCALIZATION     1.0000000000000001E-05
       METHOD  JACOBI
       &PRINT
         &WANNIER_CENTERS  SILENT
           IONS+CENTERS  T
         &END WANNIER_CENTERS
         &WANNIER_SPREADS  SILENT
         &END WANNIER_SPREADS
       &END PRINT
     &END LOCALIZE
     &REAL_TIME_PROPAGATION
       INITIAL_WFN  SCF_WFN
     &END REAL_TIME_PROPAGATION
     &PRINT
       &MO_CUBES  SILENT
         WRITE_CUBE  F
         NLUMO  4
         NHOMO  4
         &EACH
           MD  10
         &END EACH
       &END MO_CUBES
       &E_DENSITY_CUBE  OFF
       &END E_DENSITY_CUBE
     &END PRINT
   &END DFT
   &SUBSYS
     &CELL
       A     2.4069336000000000E+01    0.0000000000000000E+00    0.0000000000000000E+00
       B     0.0000000000000000E+00    2.4069336000000000E+01    0.0000000000000000E+00
       C     0.0000000000000000E+00    0.0000000000000000E+00    2.4069336000000000E+01
       MULTIPLE_UNIT_CELL  1 1 1
     &END CELL
     &COORD
Cs    1.1779729602590111E-01    1.3382265656928369E-01    1.2826395727112697E-01
Pb    4.0543354582534387E-03   -1.0008172316429576E-02   -1.3978830168633855E-02
Br   -4.6086381498540632E-03    5.1198992943703239E-03    1.1133259741564649E-01
Br   -9.4672597781790789E-03    1.1716842677067413E-01   -1.8490743567413936E-02
Br    1.3049931739931220E-01   -3.4710343124316534E-02    2.7168723456284211E-02
Cs    3.6223829615512448E-01    1.1818141257590865E-01    1.2276069022290603E-01
Pb    2.5040166415554682E-01    4.3784787740785303E-03    7.0798853997361966E-03
Br    2.7998355841558259E-01   -1.3617377361853505E-02    1.4214911694649290E-01
Br    2.3699712898098491E-01    1.2217897663137442E-01    2.7412898892424480E-02
Br    3.7493702960586295E-01    3.2545381503773854E-03   -3.6258513984910945E-03
Cs    6.4418129262932977E-01    1.2549156185455845E-01    1.2462085492346768E-01
Pb    4.9817316313243443E-01    5.3249768699452828E-03    1.0147403755113556E-02
Br    4.8412672352833369E-01   -3.6317678841081197E-02    1.2169451191018144E-01
Br    5.2991704260346573E-01    1.3083954988060328E-01    2.4674060428339310E-02
Br    6.1997180843284161E-01   -2.0811838715648713E-02    2.4134326510935351E-02
Cs    8.8822149503452330E-01    1.2446039416661472E-01    9.9722787817393868E-02
Pb    7.5363875781350176E-01    5.8152048733832559E-04   -3.9345942931654568E-03
Br    7.7961903270437349E-01    2.8089613124645085E-02    1.1528653686390643E-01
Br    7.3861975586204254E-01    1.2705819240402741E-01   -1.7254744349995785E-02
Br    8.7698643909060592E-01   -2.2214927063335638E-02   -2.0767717456195402E-02
Cs    1.2337140759309245E-01    3.6987101116655846E-01    1.2347318401318511E-01
Pb    4.3839977693262101E-04    2.4660078082610457E-01   -4.0623117424825137E-03
Br    1.4418918400983791E-03    2.4654865873390683E-01    1.1591240693413990E-01
Br    3.2794205304024614E-03    3.8508459964100533E-01   -1.6302490313622010E-02
Br    1.1931054313177308E-01    2.5114302343381223E-01    1.7384864189870945E-02
Cs    3.7394381853532949E-01    3.4789927278823485E-01    1.3951007373107185E-01
Pb    2.4590426359011100E-01    2.4670586017005325E-01    3.5388994369080335E-03
Br    2.7083787016604172E-01    2.2879994099421860E-01    1.2305391950762432E-01
Br    2.8343405844956460E-01    3.5981064603574997E-01   -1.4107420812079041E-03
Br    3.7527058136306768E-01    2.1323488789453282E-01    6.7471110422593662E-03
Cs    6.1836814481074021E-01    3.7433931627091255E-01    1.2582173442471498E-01
Pb    5.0445949277500390E-01    2.4851366389925469E-01    6.4109324129435026E-03
Br    4.9590092365589877E-01    2.6750155050439806E-01    1.3021312116301595E-01
Br    4.7435296599670829E-01    3.6989259791890994E-01   -1.0026991032183508E-02
Br    6.2709930071450037E-01    2.6473795965789815E-01    3.0801568464988032E-02
Cs    8.8495026146497535E-01    3.8396781722784662E-01    1.4027815409941310E-01
Pb    7.4407242769944415E-01    2.4935514641084922E-01    2.0667728648230180E-03
Br    7.7244400743241770E-01    2.2181112323695309E-01    1.1964722341824309E-01
Br    7.7059907023327123E-01    3.8479705212727361E-01    3.2480430207862773E-02
Br    8.7420269824550068E-01    2.4743746114015813E-01   -2.0104852671233148E-02
Cs    1.1942286337910321E-01    5.7981910566836192E-01    1.3734527537383759E-01
Pb    2.0923836526226128E-03    5.0463596290669333E-01    1.1089347872160850E-02
Br   -9.4206501997609361E-03    4.8302780874147599E-01    1.3390797796335871E-01
Br    3.5763407142994336E-02    6.3630841981005881E-01    3.8514067216028569E-02
Br    1.2235029020664367E-01    4.7866321777136223E-01    1.0515789964529813E-02
Cs    3.5609724693499639E-01    6.3888449274176617E-01    1.0320135070245978E-01
Pb    2.5222932462608183E-01    4.9022616488452941E-01    7.2832247455164303E-03
Br    2.4469414834612896E-01    4.7470426348483985E-01    1.4068373429544836E-01
Br    2.3549320229724133E-01    6.1231787800461190E-01    2.8844862291595972E-02
Br    3.7431801562472111E-01    4.8872037576220678E-01   -2.3327680091291400E-03
Cs    6.3385075645073008E-01    6.2331212434445038E-01    9.7748783553992122E-02
Pb    5.0311296764393121E-01    5.0909295864015558E-01    2.4950658231838374E-03
Br    5.0451961804341716E-01    4.7852177563643183E-01    1.2554353558473763E-01
Br    5.0732241678086853E-01    6.2761272692898307E-01    5.4298782647615403E-02
Br    6.3232841368766568E-01    4.9296077739581701E-01    2.3581882804548066E-02
Cs    8.7596546813259579E-01    6.1953810831111977E-01    1.1885382307653290E-01
Pb    7.5482508615016786E-01    4.9100615728820074E-01   -8.6736662409166616E-03
Br    7.5956537723728834E-01    5.2408858038012607E-01    1.2272366040406357E-01
Br    7.3148863820643262E-01    6.3682794469733994E-01   -2.8404681636158967E-02
Br    8.8182937220048851E-01    5.0160414664376118E-01   -5.0511121016174627E-03
Cs    1.4124324317039058E-01    8.6090729310547920E-01    1.3309941824791882E-01
Pb    9.5459868906043448E-03    7.5986878083530141E-01    5.0378313353385950E-03
Br   -8.1078868205331743E-03    7.8818503293884623E-01    1.1541310207163710E-01
Br    6.6726571588794029E-03    8.6949542825045567E-01   -5.2473262231676560E-02
Br    1.3193645791846223E-01    7.5430731678664542E-01    3.4400023730939765E-03
Cs    3.7367604988330300E-01    8.7348648147474539E-01    9.6088663065924548E-02
Pb    2.5643461298425352E-01    7.5609987625170372E-01   -8.4641851192564579E-03
Br    2.5025092157004908E-01    7.6270503675283985E-01    1.3472257941382823E-01
Br    2.6899570602718970E-01    8.6956078774655909E-01   -3.5489574085515056E-02
Br    3.8313009101648282E-01    7.2332810080219079E-01   -1.4909171354063409E-02
Cs    6.3272655036878378E-01    8.5600515201565985E-01    1.1701814150618020E-01
Pb    5.0229323498507650E-01    7.4795167107881677E-01    1.0641846207863535E-02
Br    4.9038975159462178E-01    7.7997264940789612E-01    1.3159092311591292E-01
Br    5.0365581853116248E-01    8.8045499904637581E-01   -2.9661158737783931E-02
Br    6.2650090418698290E-01    7.6353059771702103E-01   -1.4185499189949932E-02
Cs    8.7539500544703686E-01    8.8464554937872120E-01    1.1896903025715767E-01
Pb    7.6394102061444369E-01    7.4276472410030947E-01   -2.3707678980766657E-03
Br    7.7305109617905421E-01    7.2031936529688534E-01    1.1278061752975523E-01
Br    7.5653172492191989E-01    8.8228172771813651E-01    3.3250975517378094E-02
Br    8.8143783360101025E-01    7.3670755308511371E-01   -9.8981496066683876E-03
Cs    1.1701691140764575E-01    1.3600690504712817E-01    3.6140952634861057E-01
Pb   -4.7721373072515897E-03   -2.6019905710452122E-03    2.5156587293630406E-01
Br    5.6416241362948157E-02    2.8043642589748994E-03    3.4801766796316780E-01
Br   -1.9086208344264144E-03    1.1747467529265551E-01    2.4558706209721179E-01
Br    1.3673513751418417E-01   -9.4548915138509774E-03    1.9274706557806101E-01
Cs    3.6899840193139338E-01    1.2700972592537382E-01    3.6165479293163078E-01
Pb    2.4332193596368787E-01   -1.4527528178594897E-02    2.5537239619377389E-01
Br    2.2696146642993725E-01    2.7372576336613611E-02    3.8115488172286521E-01
Br    2.3789648161217106E-01    1.2038129737639362E-01    2.6573427848166797E-01
Br    3.8127493958826375E-01    1.4785829415589285E-03    2.9130408049091433E-01
Cs    6.3091289763730429E-01    1.3897428122353497E-01    3.7371503219352126E-01
Pb    5.1294761189071869E-01   -1.3899877881825430E-02    2.5288245495464112E-01
Br    5.4339263317497166E-01    1.6076725478228058E-02    3.7290863301603033E-01
Br    5.0302626379436899E-01    1.1967289961822999E-01    2.1241761897547257E-01
Br    6.3324808194078752E-01   -4.5547182704306372E-03    2.3861080515925281E-01
Cs    8.6957844593300837E-01    1.2899872714723326E-01    3.5112086340135906E-01
Pb    7.6026869431431432E-01    4.7184230130239658E-03    2.3905071580321424E-01
Br    7.4897777246905650E-01    1.4199588696256285E-03    3.6753138157352794E-01
Br    7.2800295097494672E-01    1.2933831008390892E-01    2.5489623981843967E-01
Br    8.7566919705145319E-01    4.5173935742200133E-03    2.6708953791577977E-01
Cs    1.0886317149155959E-01    3.7428084644000037E-01    3.7694674756418062E-01
Pb    1.6887847121664504E-03    2.4625536395365746E-01    2.4380574743006600E-01
Br    1.3507401762023289E-02    2.3752405423564643E-01    3.7035375707448792E-01
Br   -1.1634264738390241E-02    3.7157631422806298E-01    2.6874770871059361E-01
Br    1.2642370876007233E-01    2.5396039608999715E-01    2.2402546253468272E-01
Cs    3.8641641751830275E-01    3.6250337895776108E-01    3.7196820750752468E-01
Pb    2.4493499575119382E-01    2.3736857136726419E-01    2.5005337310794040E-01
Br    2.2079867268738856E-01    2.2040497051235688E-01    3.8181538432006890E-01
Br    2.3387795032965814E-01    3.6719928712332184E-01    2.8007894331060862E-01
Br    3.7297631888861521E-01    2.4145153016670287E-01    2.5877652351381941E-01
Cs    6.2138577070048873E-01    3.7863204532522182E-01    3.7504783595880814E-01
Pb    5.0946682519010000E-01    2.3989979193967911E-01    2.4532447288678030E-01
Br    4.9325579291248894E-01    2.3540281492208873E-01    3.7794147702404662E-01
Br    4.8759570439605998E-01    3.7405320690364957E-01    2.6228325939252306E-01
Br    6.2901161326432176E-01    2.6263961631691907E-01    2.5400690122199338E-01
Cs    8.9621251368631039E-01    3.8484998649906033E-01    3.8546727769058847E-01
Pb    7.5779025074072448E-01    2.5491616126483518E-01    2.4650294750225482E-01
Br    7.4486896175756090E-01    2.7230473738541416E-01    3.6647924554719696E-01
Br    7.6228347714806199E-01    3.8155843189335803E-01    2.2129670809487384E-01
Br    8.7327256388278507E-01    2.3950830947293766E-01    2.3545382941077861E-01
Cs    1.1412726972093443E-01    6.3774800891677108E-01    3.8631697109278307E-01
Pb   -4.0449078831437712E-03    4.9209754043441684E-01    2.6712473271533488E-01
Br    2.9656423764675036E-02    4.9512425487974587E-01    3.8634220853344520E-01
Br    1.6307665719170659E-02    6.1999154631320341E-01    2.7907005086473957E-01
Br    1.1354979595942019E-01    4.5877595711068497E-01    2.4210902653799407E-01
Cs    4.1194313486218342E-01    6.3610564591604246E-01    4.0281133077747855E-01
Pb    2.3527498001077868E-01    4.8808347255195250E-01    2.7127059493242350E-01
Br    2.0007502087793602E-01    5.0254947640925474E-01    3.9516444302168485E-01
Br    2.2602502252012080E-01    6.1465375516904719E-01    2.2896486994569856E-01
Br    3.6226062054148750E-01    5.0111396302169442E-01    2.6507377475919491E-01
Cs    6.2424380959815096E-01    5.8575069827577564E-01    3.8608493801680799E-01
Pb    4.9115342991923533E-01    4.9801442035764815E-01    2.6001220647091439E-01
Br    5.0847213680499881E-01    5.0156504338671259E-01    3.8457091694457374E-01
Br    5.0222400299444814E-01    6.1391152701586937E-01    2.5110122564569715E-01
Br    6.2661969339367407E-01    4.7257875018890555E-01    2.5605692189460016E-01
Cs    8.6364866157410125E-01    6.4223720053153388E-01    3.7601779744864039E-01
Pb    7.5275700921624389E-01    5.0039784608214921E-01    2.4071003015498629E-01
Br    7.5925490523218364E-01    4.9388631068715882E-01    3.6941183584784304E-01
Br    7.3971746690395013E-01    6.2974569270008962E-01    2.6488875698136094E-01
Br    8.7619378996571629E-01    5.0413518237569988E-01    2.5631550563040506E-01
Cs    1.1010921393234401E-01    8.8220768411713102E-01    3.8449945759736720E-01
Pb   -7.1702616695650976E-03    7.4255557028592789E-01    2.4519037328859014E-01
Br   -3.4771582857704673E-02    7.4908830558846784E-01    3.6726246536794377E-01
Br   -1.8070452620703812E-02    8.6123980555408808E-01    2.6146157482023064E-01
Br    1.2091621789129665E-01    7.5309694922615700E-01    2.7794131966307412E-01
Cs    3.8229176696563855E-01    8.7955420441474474E-01    3.7348074022926314E-01
Pb    2.4616730800792200E-01    7.3279409651276173E-01    2.5936920539239916E-01
Br    2.6151935014277444E-01    6.9745842705665984E-01    3.7871955130167095E-01
Br    2.2643203066022155E-01    8.7469400938630271E-01    2.9302215360189526E-01
Br    3.7607999587255897E-01    7.4744154692448561E-01    2.5354314905285602E-01
Cs    6.3903341370256828E-01    8.9715727339661533E-01    4.0549436795392207E-01
Pb    4.9623940637528846E-01    7.3747571971259840E-01    2.5105298753968375E-01
Br    5.0461685314680216E-01    7.3169844846967247E-01    3.7217416498456185E-01
Br    5.1430221847953739E-01    8.6848077424709669E-01    2.8461022622560506E-01
Br    6.2507152698853974E-01    7.3712000681253043E-01    2.0454677884733835E-01
Cs    8.7409053205432674E-01    8.7561106185744997E-01    3.7002401308585098E-01
Pb    7.4905167781146687E-01    7.5485742594782368E-01    2.3637732542664375E-01
Br    7.4156829440799799E-01    7.5122432874098855E-01    3.6685916361076826E-01
Br    7.5541444856906703E-01    8.8067660848745999E-01    2.3961787952051533E-01
Br    8.6645743649887230E-01    7.2033364774571795E-01    2.2826282589335581E-01
Cs    1.2718147814595634E-01    1.2917235228526330E-01    6.3039804163926794E-01
Pb    6.3268393210173662E-03   -1.9232493236776109E-03    5.0060579514701398E-01
Br   -2.4910919058925691E-02   -2.0422614916531901E-02    6.1615988077768846E-01
Br    3.3042574440907281E-02    1.1809104537931478E-01    5.1535121480260360E-01
Br    1.3100351907285154E-01   -3.1205938082729378E-02    5.3523708570379080E-01
Cs    3.7339252127129585E-01    1.3525153714440205E-01    6.1312036366077682E-01
Pb    2.4598818501119041E-01    1.8003916235623365E-03    4.9298471392176618E-01
Br    2.8325637899645795E-01   -1.0227259760847419E-02    6.1856238429075983E-01
Br    2.2475573559299078E-01    1.2726547482351996E-01    5.1734809191747677E-01
Br    3.8959782416707872E-01    1.3251586885236161E-02    4.4872205831112916E-01
Cs    6.2983397210517644E-01    1.3549490991921476E-01    6.2661958283570141E-01
Pb    5.1136785966516607E-01    1.3167964565988158E-02    4.9719730042137000E-01
Br    4.8240023544127919E-01    4.2197927487717918E-02    6.2907828965513168E-01
Br    5.3994897006932518E-01    1.3166480717611803E-01    5.0085662119876595E-01
Br    6.4073130875091677E-01   -3.7800953040291606E-03    5.2933503153340478E-01
Cs    8.9830611104385760E-01    1.2253467345562084E-01    6.0862832972136149E-01
Pb    7.6687094857340121E-01    1.4680278517023271E-02    5.0180690292190822E-01
Br    8.0366259459301892E-01    1.1564668731142348E-02    6.2853379670119647E-01
Br    7.5365396121292094E-01    1.3114946085514917E-01    4.6763878515596485E-01
Br    8.8204992755517586E-01    1.9331973206098335E-02    4.7299500684891277E-01
Cs    1.2456319919721351E-01    3.7677943953344939E-01    6.3505035625427186E-01
Pb   -3.7683881186556935E-03    2.3783064626324110E-01    4.9832806251982575E-01
Br   -2.4433061091573716E-02    2.3986144533568815E-01    6.2110362085415771E-01
Br   -2.8460404016847254E-02    3.7646530124473460E-01    5.1936232795188531E-01
Br    1.0897887116109649E-01    2.8376371909756387E-01    5.1870313863677908E-01
Cs    3.4401065117437735E-01    3.6081139886713942E-01    6.6170537721478984E-01
Pb    2.2866234134684182E-01    2.5143459551913583E-01    4.9913589726458107E-01
Br    2.4160845398146524E-01    2.8114079490695193E-01    6.3280652503418078E-01
Br    2.4033441570364941E-01    3.7697632724506996E-01    4.9327021945320970E-01
Br    3.7835711186822601E-01    2.4853351871862472E-01    4.8906077984420721E-01
Cs    6.3456233454451527E-01    3.9262153178267334E-01    6.1194199777145719E-01
Pb    5.0019698714729799E-01    2.4497725186101724E-01    5.0488407873504404E-01
Br    4.9590032038135973E-01    2.4442653678969875E-01    6.3345679241293684E-01
Br    5.1962659081515139E-01    3.6723064250239273E-01    4.9808129691367664E-01
Br    6.4393267846607416E-01    2.7281819200742574E-01    5.1778938997104529E-01
Cs    8.7489681186719004E-01    3.7097175405596627E-01    6.4317844147520797E-01
Pb    7.5456026042520408E-01    2.5922766588060703E-01    4.9453769196286035E-01
Br    7.7162965754008195E-01    2.5792718241063589E-01    6.2463311232175023E-01
Br    7.8367796875684748E-01    3.7552520872554035E-01    4.8745052059548216E-01
Br    8.8777949810087997E-01    1.9523856708993984E-01    4.9099214298770294E-01
Cs    1.1974480616433342E-01    6.1551901723126590E-01    6.4489727598362312E-01
Pb    2.5657483222814902E-03    4.9721228302463927E-01    5.1689775523473303E-01
Br   -3.5156421472320100E-02    5.0531034559442978E-01    6.3213147671022041E-01
Br   -4.5488657714975542E-03    6.2241452144906995E-01    5.2234161431148252E-01
Br    1.2370357244381044E-01    5.0246814653874139E-01    5.4972523113239391E-01
Cs    3.9642819228624393E-01    6.4175508775244505E-01    6.4107500448042232E-01
Pb    2.4397772152320094E-01    5.2180571093487116E-01    5.1894087309166825E-01
Br    2.5572295318584004E-01    4.8039683487478246E-01    6.3824796215971391E-01
Br    2.2542170632896136E-01    6.3639380949064717E-01    5.4566357747651095E-01
Br    3.5674947526739037E-01    5.0493196057385836E-01    4.6219364715632671E-01
Cs    6.3592444713405316E-01    6.4805508877801399E-01    6.2375641650078895E-01
Pb    4.8089342855064343E-01    4.8241434775590220E-01    4.9477861204894880E-01
Br    4.7397314842235305E-01    5.0228693644922029E-01    6.3141215210368329E-01
Br    5.1454940950247996E-01    6.1905837653664519E-01    5.1031476003880427E-01
Br    6.3691511942020451E-01    4.7572120824822672E-01    4.9889473398953277E-01
Cs    8.6521721888228031E-01    6.2665351433357053E-01    6.1126771953198344E-01
Pb    7.5974819169002705E-01    5.0392128228889288E-01    4.9227563012396103E-01
Br    7.5599536591937067E-01    5.0857378285438071E-01    6.1071004168070597E-01
Br    7.3108698597553523E-01    6.2704041252493070E-01    4.8095362242214806E-01
Br    8.8070006388427968E-01    5.2585484092889423E-01    4.7005217573990843E-01
Cs    9.8137047646029069E-02    8.6952210329290047E-01    6.2348585375598109E-01
Pb   -9.2245322644504933E-03    7.4609532187729810E-01    4.8860958925438491E-01
Br    4.0397967376521503E-03    7.5927966095868227E-01    6.1390509260979820E-01
Br   -7.8207643307488927E-03    8.7470905800850707E-01    4.6579401257970515E-01
Br    1.1472543086567349E-01    7.7581702376574879E-01    5.0121876210953353E-01
Cs    3.6900156215022245E-01    8.5205288177553007E-01    5.9897454785434434E-01
Pb    2.4461103692488548E-01    7.5169137604905567E-01    4.9857018976175671E-01
Br    2.2970719939413331E-01    7.7669646602004294E-01    6.3193171586455099E-01
Br    2.7465623487859625E-01    8.7964762621572024E-01    4.8717720867703290E-01
Br    3.6853253696497029E-01    7.5171341344789755E-01    5.0501141705578145E-01
Cs    6.3952891481502550E-01    8.8739495845247340E-01    6.5001829802539079E-01
Pb    5.0600599283824121E-01    7.4842340539506114E-01    4.9886640189944714E-01
Br    5.1170568264302119E-01    7.5113556666043180E-01    6.2310010627464274E-01
Br    5.0647680275270601E-01    8.8311900525781351E-01    4.8462635603175896E-01
Br    6.2404534420746016E-01    7.3436485160392340E-01    5.1459120819694670E-01
Cs    8.8515257257015889E-01    8.5485216531296615E-01    6.0311824977446760E-01
Pb    7.4214318708990823E-01    7.5113430946701953E-01    4.8537041665649305E-01
Br    7.5408501085862822E-01    7.5166110823025623E-01    6.1108516828053605E-01
Br    7.8493676958310321E-01    8.7966390658909321E-01    4.9437451472409993E-01
Br    8.6538037888969932E-01    7.3710490245046123E-01    5.1454475327128757E-01
Cs    1.3277327567796554E-01    1.3070238540037468E-01    8.5319390385846061E-01
Pb   -7.3300819926950889E-03    4.6008845751814853E-03    7.4797544844223696E-01
Br    1.3699998008867779E-02    9.5170793585800488E-03    8.6480811167020100E-01
Br    1.1504319458425729E-02    1.2693810545227663E-01    7.5335198135022496E-01
Br    1.0899495855972746E-01   -8.5063818714189322E-03    7.2678195957469083E-01
Cs    3.5960611101875978E-01    1.1579243088245002E-01    8.8141368572777890E-01
Pb    2.4177347101921468E-01    4.8410684049415061E-03    7.3529688940829041E-01
Br    2.2114862100755076E-01    2.1760548150983210E-02    8.7937548843936564E-01
Br    2.4247181074988003E-01    1.4024243291360960E-01    7.3297201004643009E-01
Br    3.5797588349514242E-01    2.7951344904932139E-02    7.6387173345904436E-01
Cs    5.9179020986821462E-01    1.1617880045868362E-01    8.7144869533011238E-01
Pb    4.9283947870246053E-01   -1.4173965247249731E-03    7.4662886401158102E-01
Br    5.2491601635571306E-01   -1.7254224812731866E-02    8.7050756511291905E-01
Br    4.9752117812989838E-01    1.2154502816661826E-01    7.7913871390028167E-01
Br    6.1612051728788919E-01   -2.8791772842337326E-03    7.3666286311225049E-01
Cs    8.6000091188214500E-01    1.4523457551007440E-01    8.7012883962646170E-01
Pb    7.6121096596365279E-01    1.3339249111767227E-02    7.4436665328586982E-01
Br    7.3174383454365011E-01   -4.1246698332178715E-03    8.5482459281920409E-01
Br    7.3093818064513194E-01    1.3663131297892797E-01    7.5605713417043618E-01
Br    8.6623679849101842E-01    3.3541338100583670E-02    7.7796189218233713E-01
Cs    1.1294668277533901E-01    3.7617015955870553E-01    8.8867479375195557E-01
Pb   -3.6863206787686939E-03    2.5696244918253042E-01    7.5085907402651275E-01
Br    3.0404246612666711E-03    2.5131603012052151E-01    8.7563424820916758E-01
Br    1.0575758865102344E-03    3.8122263230857656E-01    7.4399515026952823E-01
Br    1.1882053959439273E-01    2.5599109584594337E-01    7.5713028138326621E-01
Cs    3.7287037356115116E-01    3.5222994020408455E-01    8.7309080446274623E-01
Pb    2.4134837554847552E-01    2.5280968187344349E-01    7.6100043017895858E-01
Br    2.4226472524891507E-01    2.3472938880628597E-01    8.8598819012341168E-01
Br    2.4394140698554370E-01    3.8149041974840114E-01    7.7708981362465035E-01
Br    3.7535317428055998E-01    2.5352950083170184E-01    7.4647269119666859E-01
Cs    6.1368840347223197E-01    3.7810348865349558E-01    8.7171547835285434E-01
Pb    5.0295154298648126E-01    2.5732395621158882E-01    7.5302268924108118E-01
Br    4.9580150030242526E-01    2.5211925740493957E-01    8.8265349755944478E-01
Br    4.7977801872827713E-01    3.7289747399938117E-01    7.7765228369446271E-01
Br    6.1667123036044369E-01    2.8844194629420539E-01    7.3821099698349524E-01
Cs    8.7997001640908423E-01    3.8526866212262284E-01    8.9395515760441446E-01
Pb    7.4259782135112140E-01    2.5515780472682409E-01    7.4939792236542346E-01
Br    7.5941304709506285E-01    2.6342690120527718E-01    8.7825575467954731E-01
Br    7.4025253137376434E-01    3.8454913182960443E-01    7.4273986590640095E-01
Br    8.7371599005673073E-01    2.5510272319644589E-01    7.6079156985162399E-01
Cs    1.1815851542676944E-01    6.2766940847952402E-01    8.9012414061114598E-01
Pb   -9.3595486250894078E-03    5.1042710566715066E-01    7.5880249759054941E-01
Br    1.3685257096205695E-02    5.1900940239818283E-01    8.8012765430683260E-01
Br   -9.5053466384820463E-03    6.2158890539524636E-01    7.2729786466848689E-01
Br    1.2529255811825429E-01    5.2381396401578662E-01    7.6586605504946481E-01
Cs    3.6724297814313406E-01    6.1174519174219444E-01    8.7517415674367749E-01
Pb    2.5181986464238532E-01    5.1148719366798212E-01    7.5741943364374575E-01
Br    2.4383508495351081E-01    5.2716171997949557E-01    8.8898978784223581E-01
Br    2.7447574221426313E-01    6.2911158238928322E-01    7.1900598019405404E-01
Br    3.6750495249076071E-01    4.8341544694450206E-01    7.7850831258869346E-01
Cs    6.3513209773525736E-01    6.2969927934073411E-01    8.6639665758363082E-01
Pb    4.8397499026274560E-01    5.0053440534635119E-01    7.5004186058956457E-01
Br    5.2937069370577894E-01    5.1961476046469968E-01    8.7404901199485063E-01
Br    4.8960271573203584E-01    6.3231769151480322E-01    7.5345474791291400E-01
Br    6.1980767838082729E-01    4.9875587399210136E-01    7.1037987776770373E-01
Cs    8.6924116012821206E-01    6.1441104519466350E-01    8.8232900268222181E-01
Pb    7.4608136768495870E-01    5.0202495292912130E-01    7.3607720872471383E-01
Br    7.3123424676106386E-01    4.7638242369430800E-01    8.6883966079608743E-01
Br    7.4244696681659783E-01    6.1787071795305504E-01    7.7497165421976955E-01
Br    8.6975281042288977E-01    4.8719383857393328E-01    7.7926069467689985E-01
Cs    1.3102901651013019E-01    8.7554619176945225E-01    8.6187628485327061E-01
Pb   -7.5481446026958643E-03    7.5254495234187913E-01    7.3705436115476419E-01
Br   -8.8275607830433939E-03    7.2403992308976761E-01    8.5592476727008970E-01
Br   -2.8384358190338729E-02    8.8080274281798310E-01    7.4864932003607954E-01
Br    1.2232679117909386E-01    7.6979406662590921E-01    7.5806227530386372E-01