 # Version information for this restart file 
 # current date 2021-08-15 16:01:18.327
 # current working dir /projectsp/f_rcr78_1/MW/Hybrid_Perovskite/CsPbBr3/4x4/450K
 # Program compiled at                              Fri Sep 13 14:50:45 EDT 2019
 # Program compiled on                             slepner083.amarel.rutgers.edu
 # Program compiled for                                                    local
 # Source code revision number                                       git:e35496b
 &GLOBAL
   PRINT_LEVEL  LOW
   PROJECT_NAME CPB_MD
   RUN_TYPE  MD
   WALLTIME 23:58:00
 &END GLOBAL
 &MOTION
   &MD
     ENSEMBLE  NVT
     STEPS  5000
     TIMESTEP     9.9999999999999989E-01
     STEP_START_VAL  4465
     TIME_START_VAL     4.4649999999996417E+03
     ECONS_START_VAL    -4.1079533489583409E+03
     TEMPERATURE     4.5000000000000000E+02
     COMVEL_TOL     1.0000000000000000E-08
     &THERMOSTAT
       TYPE  CSVR
       &CSVR
         TIMECON     9.9999999999999986E+01
         &THERMOSTAT_ENERGY
              -4.4797694781642683E-01
         &END THERMOSTAT_ENERGY
         &RNG_INIT
Wiener process for Thermostat # 1        1 F T F   1.6016331604620868E+00        3230879389.0        1389989974.0        1042583272.0         810160881.0        2499752140.0        2763034897.0             12345.0             12345.0             12345.0             12345.0             12345.0             12345.0             12345.0             12345.0             12345.0             12345.0             12345.0             12345.0
         &END RNG_INIT
       &END CSVR
     &END THERMOSTAT
     &AVERAGES  T
       &RESTART_AVERAGES
         ITIMES_START  1
         AVECPU     1.9322800876979930E+01
         AVEHUGONIOT     0.0000000000000000E+00
         AVETEMP_BARO     0.0000000000000000E+00
         AVEPOT    -4.1081780889085030E+03
         AVEKIN     6.7727290649885241E-01
         AVETEMP     4.4695008063506378E+02
         AVEKIN_QM     0.0000000000000000E+00
         AVETEMP_QM     0.0000000000000000E+00
         AVEVOL     9.4099850951374901E+04
         AVECELL_A     4.5484453240405017E+01
         AVECELL_B     4.5484453240405017E+01
         AVECELL_C     4.5484453240405017E+01
         AVEALPHA     9.0000000000000000E+01
         AVEBETA     9.0000000000000000E+01
         AVEGAMMA     9.0000000000000000E+01
         AVE_ECONS    -1.6998897954110439E-02
         AVE_PRESS     0.0000000000000000E+00
         AVE_PXX     0.0000000000000000E+00
       &END RESTART_AVERAGES
     &END AVERAGES
   &END MD
   &PRINT
     &TRAJECTORY  SILENT
       &EACH
         MD  1
       &END EACH
     &END TRAJECTORY
     &VELOCITIES  SILENT
       &EACH
         MD  1
       &END EACH
     &END VELOCITIES
     &FORCES  SILENT
       &EACH
         MD  1
       &END EACH
     &END FORCES
     &STRESS  SILENT
       &EACH
         MD  1
       &END EACH
     &END STRESS
     &RESTART  SILENT
       BACKUP_COPIES  3
       &EACH
         MD  1
       &END EACH
     &END RESTART
     &RESTART_HISTORY  SILENT
       &EACH
         MD  5
       &END EACH
     &END RESTART_HISTORY
   &END PRINT
 &END MOTION
 &FORCE_EVAL
   METHOD  QS
   &DFT
     BASIS_SET_FILE_NAME BASIS_MOLOPT
     POTENTIAL_FILE_NAME GTH_POTENTIALS
     MULTIPLICITY  1
     CHARGE  0
     &SCF
       MAX_SCF  30
       EPS_SCF     1.0000000000000001E-05
       SCF_GUESS  ATOMIC
       &OT  T
         MINIMIZER  DIIS
         PRECONDITIONER  FULL_SINGLE_INVERSE
       &END OT
       &OUTER_SCF  T
         EPS_SCF     1.0000000000000001E-05
         MAX_SCF  10
       &END OUTER_SCF
       &PRINT
         &RESTART  OFF
         &END RESTART
       &END PRINT
     &END SCF
     &QS
       EPS_DEFAULT     1.0000000000000000E-10
       EXTRAPOLATION  ASPC
       METHOD  GPW
     &END QS
     &MGRID
       NGRIDS  4
       CUTOFF     5.0000000000000000E+02
       REL_CUTOFF     9.0000000000000000E+01
     &END MGRID
     &XC
       DENSITY_CUTOFF     1.0000000000000000E-10
       GRADIENT_CUTOFF     1.0000000000000000E-10
       TAU_CUTOFF     1.0000000000000000E-10
       &XC_FUNCTIONAL  NO_SHORTCUT
         &PBE  T
         &END PBE
       &END XC_FUNCTIONAL
     &END XC
     &POISSON
       PERIODIC  XYZ
     &END POISSON
     &REAL_TIME_PROPAGATION
       INITIAL_WFN  SCF_WFN
     &END REAL_TIME_PROPAGATION
     &PRINT
       &MO_CUBES  SILENT
         WRITE_CUBE  F
         NLUMO  4
         NHOMO  4
         &EACH
           MD  10
         &END EACH
       &END MO_CUBES
       &E_DENSITY_CUBE  OFF
       &END E_DENSITY_CUBE
     &END PRINT
   &END DFT
   &SUBSYS
     &CELL
       A     2.4069336000000000E+01    0.0000000000000000E+00    0.0000000000000000E+00
       B     0.0000000000000000E+00    2.4069336000000000E+01    0.0000000000000000E+00
       C     0.0000000000000000E+00    0.0000000000000000E+00    2.4069336000000000E+01
       MULTIPLE_UNIT_CELL  1 1 1
     &END CELL
     &COORD
Cs    1.2545491751939630E-01    9.6597723848497893E-02    1.2370550070317268E-01
Pb   -3.4101838030864782E-03   -5.2480798340655917E-04    1.5421583982419950E-02
Br   -2.0123566716304345E-02   -2.2182710936555078E-02    1.3590420544006523E-01
Br    1.8863171510105289E-02    1.2222821191665530E-01    3.0572397896888606E-02
Br    1.3060259619988546E-01   -7.0459583337627680E-03    1.9042137705331433E-02
Cs    3.9412080823362772E-01    1.3720745570389448E-01    1.0684835476626618E-01
Pb    2.5403936489113793E-01    8.7113180703623332E-03    1.3565964170511200E-03
Br    2.9291319319665499E-01    4.6550498034579084E-03    1.2022554252901005E-01
Br    2.4339186495563445E-01    1.4512575601796457E-01    4.0586471542240883E-02
Br    3.8044313882246200E-01    1.0963317723783372E-02   -3.6100796702468678E-02
Cs    6.1607354214953092E-01    1.4539803563648040E-01    1.2972881173990217E-01
Pb    4.9867307659574334E-01    3.8385762304919365E-03   -2.6259420998217512E-03
Br    4.9104787269340477E-01    1.8069280149622086E-02    1.2536867405863250E-01
Br    5.0873053415038649E-01    1.2735276421971733E-01   -1.1878135574633466E-02
Br    6.3625597867544992E-01   -3.3388368173029155E-02    3.7377032026617497E-02
Cs    8.6792138591244361E-01    1.2435940666964655E-01    1.3435647381492155E-01
Pb    7.4627650736316686E-01    2.0849416956658308E-03    4.7636604012554319E-03
Br    7.7806299308872318E-01    4.7476293967913807E-03    1.3298474040677241E-01
Br    7.1940331454452022E-01    1.3881309785940402E-01    8.5301803400559487E-03
Br    8.8185539183781614E-01    1.3354602656972131E-02   -1.6746551535914079E-02
Cs    1.0900895449840030E-01    3.7210547964888818E-01    1.1539136767118501E-01
Pb   -4.2943238114625587E-03    2.3356965555116344E-01    7.5831451486068312E-03
Br   -3.8649846861212006E-02    2.5099726028729985E-01    1.3906506706439611E-01
Br   -1.0266169247576222E-02    3.5696828956474452E-01   -2.3159847776060234E-02
Br    1.1313980502294234E-01    2.5616974196847231E-01    2.7109941870237089E-02
Cs    3.5146321564529115E-01    3.9040004151602520E-01    1.4961397961852277E-01
Pb    2.6044480478244603E-01    2.5303284988710040E-01   -5.4637012712635556E-05
Br    2.3546746678976982E-01    2.9567661319790772E-01    1.3663078163330528E-01
Br    2.4756439617142384E-01    3.7806759682342866E-01   -5.1240569909281081E-02
Br    3.7956700823311867E-01    2.4312801558300495E-01    1.0168153045485134E-02
Cs    6.2252297820438773E-01    3.6977009881575451E-01    1.3724823661249280E-01
Pb    5.1305890702106749E-01    2.5505410422584024E-01   -8.6549905254441461E-03
Br    4.9923716389455097E-01    2.5185867256334349E-01    1.1488873091016669E-01
Br    4.8257352380025426E-01    3.7357108005059486E-01   -2.5730170480576409E-02
Br    6.4001701648755072E-01    2.7814419145900277E-01    9.7063536415987518E-04
Cs    8.6713811865424761E-01    3.8295444688079999E-01    1.1511780708829884E-01
Pb    7.5347324977913244E-01    2.5583026641645146E-01    5.5494672244346920E-03
Br    7.7107384886174135E-01    2.5672008146039060E-01    1.2914249313642495E-01
Br    7.8039835150840153E-01    3.8146227410959133E-01    3.4846035874028201E-03
Br    8.7413807739936578E-01    1.8858621928106348E-01    4.3934164975880209E-03
Cs    1.1585797230545021E-01    6.4488821436732924E-01    1.3551993766065948E-01
Pb   -1.4178320317833308E-02    4.9017422033318969E-01   -1.3115457884669857E-02
Br   -2.6365497594266402E-02    4.9436794314181809E-01    1.1702357721934188E-01
Br    1.0057568162419289E-02    6.1535841252392320E-01   -1.5754659598413229E-02
Br    1.1139031570650550E-01    4.7588973010616992E-01    2.3333490287179049E-05
Cs    3.5555458662122752E-01    6.1222603213150240E-01    1.0012566280469536E-01
Pb    2.4204493551818257E-01    4.9733868000461928E-01   -8.1152282344035959E-03
Br    2.3846938969441506E-01    4.8328004353196596E-01    1.1660572366903676E-01
Br    2.2338761552996594E-01    6.2675931680685082E-01    1.6531390445571649E-02
Br    3.7523723428832556E-01    4.8225604834439706E-01   -9.2116763842543404E-03
Cs    6.0222405974918247E-01    6.0462892664010592E-01    1.3591621560515549E-01
Pb    4.9614354891173984E-01    5.0239547818576746E-01    5.3653611999297246E-03
Br    4.9995061333322915E-01    5.0027236159357769E-01    1.3204047465530880E-01
Br    5.0292000166640294E-01    6.1838771864016873E-01    3.1476956473657420E-03
Br    6.1613036876334970E-01    4.5616884702013100E-01    1.6000985555438493E-02
Cs    8.7454666105078871E-01    6.2302865063896062E-01    1.3208335387443459E-01
Pb    7.3533700838516036E-01    5.0698155516768206E-01    1.3153066411388666E-02
Br    7.3660702491051433E-01    4.8632691644191800E-01    1.2313749928227510E-01
Br    6.9851327617342773E-01    6.2438914220968378E-01    5.0615298034393484E-03
Br    8.5785438675195547E-01    5.2477497536129791E-01   -7.3656921191056299E-03
Cs    8.5339510771520119E-02    8.7886252634489126E-01    1.3679933609730471E-01
Pb   -3.2164418107904539E-03    7.4548550678963887E-01    3.5865816317455787E-03
Br   -2.0132439277469435E-02    7.5562906446697098E-01    1.3327203368262266E-01
Br    1.1648971554241761E-02    8.6956071544688252E-01   -2.2853308628288825E-03
Br    1.3010980100621761E-01    7.5008836725293881E-01   -1.7160194775216514E-03
Cs    3.6703296837745891E-01    8.7782252248033188E-01    1.2593401650891378E-01
Pb    2.5468298550760821E-01    7.5033984036358781E-01   -1.4180307608768496E-03
Br    2.5919989145223399E-01    7.7123537501696060E-01    1.2112384735256948E-01
Br    2.6930703560973657E-01    8.9492448182895667E-01   -9.2484595822374827E-03
Br    3.7778871316160456E-01    7.2808374688150057E-01   -9.8792060268722490E-03
Cs    6.0329666550315253E-01    8.7208452813017823E-01    1.2184371453912249E-01
Pb    4.9876150501856142E-01    7.4395492932764673E-01    3.8550569393630825E-03
Br    4.7955507262185620E-01    7.1836625490984429E-01    1.2334523640762354E-01
Br    4.8533836230069155E-01    8.6828613352060091E-01    1.5058144561089124E-02
Br    6.2164510044366161E-01    7.7185297216364579E-01   -2.3298795754693805E-02
Cs    8.6081057989509091E-01    8.4055735280145971E-01    1.3969909073542500E-01
Pb    7.4283590102837915E-01    7.4974099560776697E-01    6.9578300227448823E-03
Br    7.5909558459411708E-01    7.2750132636361942E-01    1.3936329152359683E-01
Br    7.6597649043585525E-01    8.7522540733615872E-01    2.2583023480568194E-02
Br    8.7629606105532454E-01    7.4022487766566314E-01   -3.2470520296532680E-03
Cs    1.1995137962866106E-01    1.0179845144007886E-01    3.6604941882623621E-01
Pb    4.8609089838713608E-03   -1.5823285762739437E-03    2.5827306967855412E-01
Br   -2.7159382070501134E-03   -2.1091353447415004E-03    3.8637907231173624E-01
Br    1.4397978641292511E-02    1.2187387633008892E-01    2.4072197367044584E-01
Br    1.3058132941956335E-01   -2.0532009516183926E-02    2.4745217803080416E-01
Cs    3.8927606556381728E-01    1.2610127354428935E-01    3.7245397030382282E-01
Pb    2.5658838520009475E-01    9.8824266868507357E-03    2.5652603898985293E-01
Br    2.5396957846062401E-01   -4.7291331562041581E-03    3.8229470600166926E-01
Br    2.4165943011753308E-01    1.2279745368572148E-01    2.1794791048878812E-01
Br    3.8486549787420998E-01    3.0141325555636971E-02    2.6136509546186154E-01
Cs    5.9960822331047536E-01    1.2109641218963745E-01    3.6188062658607972E-01
Pb    4.9829410803205626E-01   -7.8355415436443358E-03    2.4937997199638384E-01
Br    5.0371179815414091E-01   -1.1879314384238450E-02    3.7139438609688308E-01
Br    5.1349717522352045E-01    1.2082760502653288E-01    2.4792972912002390E-01
Br    6.2170852321379588E-01   -2.3276142882300219E-02    2.2145542940630217E-01
Cs    8.4695203267156505E-01    1.2231610964029610E-01    4.1075855296397068E-01
Pb    7.4434187561180676E-01   -3.8548979195966275E-03    2.4700115011859622E-01
Br    7.1885004644234651E-01   -1.6631699730370774E-02    3.7492852049269965E-01
Br    7.3543270461415211E-01    1.3582887154761658E-01    2.2420009873163477E-01
Br    8.8003500364939902E-01    1.7218485183159229E-02    2.8194772417277958E-01
Cs    1.1321138046607512E-01    3.7725379814763815E-01    3.7367731229536905E-01
Pb   -1.9672262884422361E-03    2.4216256920906204E-01    2.5241322396950561E-01
Br    7.0686208091343657E-03    2.7827225731015731E-01    3.7756117688182012E-01
Br   -5.0285862952238386E-02    3.7458266287752512E-01    2.5331693245771592E-01
Br    1.1498594589955048E-01    2.5844202716954018E-01    2.4016992669132256E-01
Cs    3.6693390518968033E-01    3.9371775429854206E-01    3.8903975251510720E-01
Pb    2.4876757462186599E-01    2.5362405810669453E-01    2.5372442899875086E-01
Br    2.3380743429878051E-01    2.0703435138898668E-01    3.7184813497927238E-01
Br    2.7094022829050773E-01    3.7754260768930370E-01    2.9148078593126320E-01
Br    3.6734474801419370E-01    2.5106629910558936E-01    2.0804098799130630E-01
Cs    6.3253064405887538E-01    3.8453623065037484E-01    3.8930329856843920E-01
Pb    4.9588841277796292E-01    2.4725720867122980E-01    2.4520903492853885E-01
Br    4.9945132315670776E-01    2.2767139220548707E-01    3.7753720262162310E-01
Br    4.7638214271130480E-01    3.7319505623371901E-01    2.3845571462944831E-01
Br    6.0785042634428299E-01    2.5405482439839117E-01    2.4913255685135441E-01
Cs    8.8415982413473004E-01    3.7671412394822995E-01    3.9243479853585583E-01
Pb    7.6171678421945510E-01    2.4786657801161341E-01    2.5432498300424161E-01
Br    7.5194689446258767E-01    2.5835339937389645E-01    3.8109565100721149E-01
Br    7.3466367810790434E-01    3.7877297142707239E-01    2.5200026218697563E-01
Br    8.6951304467717760E-01    2.3686351194735597E-01    2.8173202056642893E-01
Cs    1.2317665878698664E-01    6.3045537961694320E-01    3.8242909099052846E-01
Pb   -9.7900051919491433E-03    4.9173900344332788E-01    2.5023532132669368E-01
Br    6.2283433641478333E-03    5.1467019287926008E-01    3.6889619243022354E-01
Br    3.2604405523390181E-02    6.1931998399885224E-01    2.4674563758474116E-01
Br    1.1818495611335621E-01    4.6022929767574910E-01    2.4840027458318678E-01
Cs    3.6846950699899789E-01    6.4050721935665234E-01    3.5382508420437148E-01
Pb    2.3044668075678434E-01    4.9140955513686335E-01    2.5108025761013275E-01
Br    2.2905083259808193E-01    5.1453021968843193E-01    3.6332457777276278E-01
Br    2.0865405582233965E-01    6.2393108926558327E-01    2.4312442992088490E-01
Br    3.5591512113923524E-01    5.1909158359038310E-01    2.5017651193224999E-01
Cs    6.3240910996680477E-01    6.5313106073699234E-01    3.6546634608664358E-01
Pb    4.9206759969073827E-01    5.0035070769281398E-01    2.5104656186615115E-01
Br    5.0062669100291446E-01    5.2422200226594962E-01    3.7071447434051130E-01
Br    4.9448752948355312E-01    6.3293891555629866E-01    2.5349794703906853E-01
Br    6.1493351646911754E-01    5.2230646029674288E-01    2.6307342725986887E-01
Cs    8.7261338260927956E-01    6.1560402916527612E-01    3.7974587318207909E-01
Pb    7.4039076707722173E-01    4.9688373978491557E-01    2.5587422742453630E-01
Br    7.4505094247530046E-01    4.6677469497024698E-01    3.7964546236225061E-01
Br    7.5513311608549816E-01    6.3631517175085361E-01    2.7597460036793336E-01
Br    8.7151649865459802E-01    5.1813711285570552E-01    2.6239734278445803E-01
Cs    1.5042901678622483E-01    8.8070762110328249E-01    3.7548692886258395E-01
Pb    9.7084995600724977E-03    7.5367785277549826E-01    2.5479282797924707E-01
Br   -9.5702914244144089E-04    7.4026460582385412E-01    3.7677222093172819E-01
Br   -2.2383928184201624E-02    8.7737115544393385E-01    2.4447707172197558E-01
Br    1.2875433821175672E-01    7.8891284204362577E-01    2.5290805714481884E-01
Cs    3.8551118985043731E-01    8.8304933738065672E-01    3.6694187224869679E-01
Pb    2.4365280473791712E-01    7.4421275387063635E-01    2.4544967021700659E-01
Br    2.3268382257687389E-01    7.4398136801031611E-01    3.7531008763526613E-01
Br    2.7390702337253536E-01    8.8358166199847632E-01    2.5589949549924884E-01
Br    3.6570571358517012E-01    7.4424609891256721E-01    2.4102393377723136E-01
Cs    6.2741152562221669E-01    8.6387420007940019E-01    3.4585863693659447E-01
Pb    4.9257821497790344E-01    7.5459093538052047E-01    2.3561557879474118E-01
Br    5.0978064197901818E-01    7.7957153390171596E-01    3.8516501188341545E-01
Br    4.6968524675333412E-01    8.7154132255401917E-01    2.2547029108973277E-01
Br    6.1420481793388115E-01    7.4376402569190436E-01    2.5640165672513143E-01
Cs    8.8363358552998195E-01    8.9303311132634444E-01    3.7508010620082216E-01
Pb    7.6430750352938204E-01    7.5185870003946997E-01    2.5925292579969628E-01
Br    7.7112857045030969E-01    7.8332226223587409E-01    3.7467449614387976E-01
Br    7.4177855942699955E-01    8.8461445261762250E-01    2.1893455467680045E-01
Br    8.8782290142112907E-01    7.4089927352260609E-01    2.5888715003280344E-01
Cs    1.0256889825088716E-01    1.1542847219987723E-01    6.1606925457477801E-01
Pb    1.8724731098877520E-03    4.0225308780276035E-06    5.0367782874898170E-01
Br    1.4876146477683391E-02   -6.2838682317080926E-03    6.2264800670055442E-01
Br    2.8594779258191493E-02    1.2989746313073383E-01    4.7658781600080996E-01
Br    1.3067330609293254E-01   -1.2146846537408457E-02    4.9251131273901755E-01
Cs    3.9113944765720776E-01    1.0963546692394764E-01    6.1896221744412150E-01
Pb    2.4806374208273857E-01   -2.3256930173271386E-03    5.0739297923987592E-01
Br    2.3920124958736377E-01   -4.0122246905942259E-02    6.3430837877069779E-01
Br    2.4121330035289471E-01    1.0920976601956971E-01    5.2642241808264756E-01
Br    3.8729978982341390E-01    2.5156114849177867E-02    5.0420557873135530E-01
Cs    6.1055324491810781E-01    1.1647442523398167E-01    6.0800781940880566E-01
Pb    4.9887416639357895E-01   -1.0332338143911603E-02    5.0025277818644864E-01
Br    4.9967954472987075E-01   -2.5100250830215678E-02    6.2980254472849773E-01
Br    5.2413301104460319E-01    1.1835005300661618E-01    5.0013534441905005E-01
Br    6.3756620546900933E-01   -2.8976579203074931E-02    4.9718059698600114E-01
Cs    8.8197864896340317E-01    1.3032694423757146E-01    6.2357522485393346E-01
Pb    7.5800840299859429E-01   -6.0919478163373956E-03    4.9084313135300001E-01
Br    7.6373786217646256E-01   -4.2338673237914091E-03    6.2629387511365076E-01
Br    7.2555669089486519E-01    1.1635912819614620E-01    4.9672674405437339E-01
Br    8.8199598468905216E-01    2.1590162692960206E-02    5.0879583217661595E-01
Cs    1.2740959026788157E-01    3.5725403742930417E-01    6.1794986237906868E-01
Pb    6.8820183262716687E-03    2.4736678879982779E-01    4.9469001669657425E-01
Br    1.9912463261303887E-02    2.4573772867779939E-01    6.1555604736728531E-01
Br   -7.3451490579744066E-04    3.7722115495284753E-01    5.0260332165426602E-01
Br    1.2830127640734340E-01    2.8216253434630556E-01    4.8833036808963981E-01
Cs    3.6396458009625393E-01    3.5897224785397447E-01    6.4227270877924769E-01
Pb    2.4693955723463268E-01    2.2889756473825498E-01    5.0072989742181062E-01
Br    2.5112323144363002E-01    2.6840181865764018E-01    6.3206007796222763E-01
Br    2.7559110751119870E-01    3.5464605679674521E-01    4.8617113533818213E-01
Br    3.7027677986439950E-01    2.0736449051459618E-01    5.0149013664261510E-01
Cs    6.0182900438442810E-01    3.8456933431384049E-01    6.3537364939589380E-01
Pb    4.9879583429106855E-01    2.4609823864961547E-01    4.9634237742017862E-01
Br    4.7625811661402473E-01    2.3485120205920307E-01    6.2025215147111390E-01
Br    5.1377977178419987E-01    3.7187747935260501E-01    4.8100155759811047E-01
Br    6.2528224466451499E-01    2.5586304111372976E-01    5.2205473224811116E-01
Cs    8.8284730850430537E-01    3.7067917729277178E-01    6.0053884727312445E-01
Pb    7.4795168454053973E-01    2.5309730733259767E-01    5.0850307111140003E-01
Br    7.6784114926668234E-01    2.4786043180913789E-01    6.2437517789507113E-01
Br    7.5074543981499819E-01    3.7821990690930524E-01    5.2747495329048166E-01
Br    8.7501258551259065E-01    2.3729703469918412E-01    4.9580989953191767E-01
Cs    1.2642401240114423E-01    6.4164409593766070E-01    6.1143933851897214E-01
Pb   -3.0877575648210896E-03    5.0230988819228417E-01    4.9846234763549474E-01
Br   -1.7322212888039944E-02    5.0175224437930910E-01    6.1873107814626838E-01
Br    2.4259810296613220E-02    6.2940411868275270E-01    5.0312905728737711E-01
Br    1.2476256031123031E-01    4.8638413720335150E-01    5.1295834927585326E-01
Cs    3.7624317742727864E-01    6.2518116046843664E-01    6.2061628507958255E-01
Pb    2.5126329489173393E-01    4.9239251160102893E-01    4.8390064750274070E-01
Br    2.5791147499773032E-01    4.5501302968735952E-01    6.1226185840167879E-01
Br    2.3455392011032450E-01    6.2276141435627042E-01    5.0321857318206153E-01
Br    3.7553009030467882E-01    5.0356962717637466E-01    4.8763937423513398E-01
Cs    6.6560010507518108E-01    6.3563199043813834E-01    6.3719993789162976E-01
Pb    5.0929282885355476E-01    4.9784823917227894E-01    4.9734345351364989E-01
Br    4.7892782513698828E-01    4.9465008072016414E-01    6.2115176451152143E-01
Br    5.3133415323728450E-01    6.1633618372692889E-01    5.2268908013089099E-01
Br    6.2903038211799078E-01    4.8322831347204992E-01    5.2919009297859154E-01
Cs    8.8894040923888851E-01    6.4402706281187139E-01    6.5608586654299361E-01
Pb    7.5466594728213465E-01    5.0500075251059939E-01    5.0621774982407342E-01
Br    7.7971450321501057E-01    5.1562776141991706E-01    6.1830515155203070E-01
Br    7.2322200779558887E-01    6.4500562347101875E-01    4.7889511315237981E-01
Br    8.7794700327002373E-01    5.0954124912282217E-01    4.8474220242204630E-01
Cs    1.2098768203016193E-01    8.7842217403994749E-01    6.2742595054283656E-01
Pb   -1.7061989285034388E-02    7.5735377329121045E-01    5.0086482939975208E-01
Br   -1.3582028847933247E-02    7.6757014518385114E-01    6.2917301138603332E-01
Br   -4.2724053033428126E-02    8.7867997870958470E-01    4.9028736622893027E-01
Br    1.2824355580155186E-01    7.9482460069255667E-01    5.0958968986722120E-01
Cs    3.7625082673040849E-01    8.8939555771064438E-01    6.6573860851718913E-01
Pb    2.4981300569061229E-01    7.5342893790702026E-01    5.0128016195231950E-01
Br    2.6482190371415121E-01    7.8243188982749068E-01    6.2114936817218791E-01
Br    2.9304932251826116E-01    8.6491873945904152E-01    4.8200784560594839E-01
Br    3.7374329608902479E-01    7.1779495904343293E-01    4.9610434022901073E-01
Cs    6.2145342020949990E-01    8.7902111317883569E-01    6.0975867150801533E-01
Pb    4.9648287011959108E-01    7.4819513719371833E-01    5.0392906110928226E-01
Br    5.0514431015959738E-01    7.6695159622813536E-01    6.3227249787330675E-01
Br    4.8367720779506618E-01    8.7127962974223294E-01    4.9032276239664657E-01
Br    6.2412157947869018E-01    7.9379579869319139E-01    5.0764471687417190E-01
Cs    8.8240219360603556E-01    8.8356666565756981E-01    6.3558665166748485E-01
Pb    7.4725438413483347E-01    7.6283847069707011E-01    4.9256341297446843E-01
Br    7.8329942500040195E-01    7.3510998842718178E-01    6.2304091341369350E-01
Br    7.8552894208353274E-01    8.8026548306986263E-01    5.3452114772302661E-01
Br    8.6759635587092732E-01    7.1913529308183965E-01    4.9480723707114976E-01
Cs    1.1444396104405559E-01    1.1381797200822934E-01    9.1952440094577059E-01
Pb    5.1665823152733529E-03   -2.3600216015877183E-03    7.5840908382949757E-01
Br   -2.5762205792068203E-03    5.0542961295122245E-03    8.7645594873009136E-01
Br   -6.7827281833663195E-03    1.2065679307286925E-01    7.2667418318128452E-01
Br    1.2379961233810163E-01    4.7196116706838568E-03    7.4477685729736087E-01
Cs    3.8442979782539610E-01    1.3951144611473335E-01    8.7315495316962388E-01
Pb    2.4739846994370773E-01    7.3109841387368219E-03    7.4789459009097881E-01
Br    2.2657683918503549E-01    4.3284655669354414E-03    8.7544836384180469E-01
Br    2.5190655408045437E-01    1.1935247561513311E-01    7.0398683648367044E-01
Br    3.6915188248969627E-01    1.5266136188310655E-02    7.5378267518778996E-01
Cs    6.3177190971712294E-01    1.2639220686830188E-01    8.3827762007789564E-01
Pb    4.9878933458434793E-01    1.0414341734386642E-02    7.4895155086178389E-01
Br    5.5101458247765855E-01    7.6730302952569118E-03    8.7280801107559625E-01
Br    4.9508981805655194E-01    1.3800439091164862E-01    7.4844574961609078E-01
Br    6.2315837907288685E-01    1.8365013301228522E-03    7.4025887737765739E-01
Cs    8.9119984433276422E-01    1.3230072037250068E-01    8.7661314670436474E-01
Pb    7.5158753699692049E-01   -2.9709157652758702E-03    7.5245570338662793E-01
Br    7.2213858563567912E-01   -2.3338857845336781E-02    8.7480100781802261E-01
Br    7.7778228102743008E-01    1.1902704791438565E-01    7.4670162445313359E-01
Br    8.7690594760252105E-01   -1.8193718694264466E-02    7.8090627586967787E-01
Cs    9.9412651624710774E-02    3.6629005167700823E-01    8.7019618607298377E-01
Pb    1.3724631289718478E-02    2.4824589131316915E-01    7.5792838919742378E-01
Br    1.7945452083603829E-02    2.0535160261991955E-01    8.8033847353265793E-01
Br    1.7984882236405424E-02    3.7127640295978015E-01    7.3633547975055647E-01
Br    1.3848650757667200E-01    2.3282822052295093E-01    7.8431398526137719E-01
Cs    3.7802685478856235E-01    3.9746670753726693E-01    8.5858379617635283E-01
Pb    2.5561919219565149E-01    2.4731773761724343E-01    7.5721265300499052E-01
Br    2.6182797936230667E-01    2.2011070206676323E-01    8.9239206916427716E-01
Br    2.2271537591335497E-01    3.8373936248107193E-01    7.7489134900599943E-01
Br    3.8531761113113294E-01    2.5364605291579945E-01    7.7107896850445024E-01
Cs    6.1234219775762078E-01    3.8410979342556267E-01    8.6575027980168395E-01
Pb    5.1659232067792837E-01    2.5510615529984881E-01    7.3466898019418558E-01
Br    5.4978429738657075E-01    2.5053865888488402E-01    8.6273302037305288E-01
Br    4.8906446505174955E-01    3.7403352311074611E-01    7.4333313352424357E-01
Br    6.3394953217704864E-01    2.3167931403716041E-01    7.0518183554930747E-01
Cs    8.6137144990003522E-01    3.9328656364962045E-01    8.6631423684941589E-01
Pb    7.5327001762256818E-01    2.4946321594783555E-01    7.4884706984374949E-01
Br    7.6186881301855647E-01    2.3806413069805760E-01    8.7659247582250022E-01
Br    7.4253857351306241E-01    3.7964216064252165E-01    7.6039788525418761E-01
Br    8.8454507710247776E-01    2.6891281094853203E-01    7.7167291649544323E-01
Cs    1.2300864253129248E-01    6.3553645734433051E-01    8.7906856895756191E-01
Pb   -7.2468087576249649E-04    5.0449162988137419E-01    7.3715073960861943E-01
Br    2.5833226893150325E-02    5.0281741890042553E-01    8.6350287504642587E-01
Br   -1.3980577800612338E-03    6.2434813762596453E-01    7.6631330950889653E-01
Br    1.2418684823980501E-01    5.0384443809963009E-01    6.9449100989402046E-01
Cs    3.8203136902409907E-01    6.2135406999218890E-01    8.5665904673244631E-01
Pb    2.5034716588408679E-01    4.9364457287247576E-01    7.3130526251269568E-01
Br    2.5519196459956234E-01    5.4065502100083074E-01    8.5567086310087281E-01
Br    2.4686522270717920E-01    6.1130073311879496E-01    7.0365907722345999E-01
Br    3.8099948256205124E-01    5.1070191264135767E-01    7.3478473628465024E-01
Cs    6.3237115566743263E-01    6.4531778409516660E-01    8.8466892612421555E-01
Pb    5.0438669879463360E-01    4.9360178714305786E-01    7.4542911782738319E-01
Br    4.9631459280201051E-01    5.1006831534577723E-01    8.6860965703537973E-01
Br    5.1985973459283175E-01    6.3274592666274510E-01    7.4586394711351856E-01
Br    6.2868435085534491E-01    5.1333435054382115E-01    7.1313347610528988E-01
Cs    8.9713662295335639E-01    6.3227908183999382E-01    8.8143279297019350E-01
Pb    7.5264913933202471E-01    5.0423424833649033E-01    7.5456057941758981E-01
Br    7.3281572308481180E-01    4.8913057211671246E-01    8.7820961345372150E-01
Br    7.6747935762189834E-01    6.3299230466763301E-01    7.6265872694486114E-01
Br    8.8771650866338869E-01    5.1007792279803177E-01    7.6636164707410515E-01
Cs    1.6115695972158464E-01    8.6872514977561399E-01    8.8306316718753564E-01
Pb    6.2031738349156863E-03    7.5057038982636204E-01    7.4270693511500030E-01
Br    1.3046725374860095E-02    7.6025661669442313E-01    8.7386715606904297E-01
Br    1.2680414353412916E-02    8.7149217383060928E-01    7.4677637695847243E-01
Br    1.3409587567969480E-01    7.5064915920416964E-01    7.2540415943206904E-01
Cs    3.7779952499196529E-01    8.6797084466072194E-01    8.7242764641510162E-01
Pb    2.4503003696174916E-01    7.3934863485345770E-01    7.3986779229232658E-01
Br    2.4976334816347398E-01    7.2685793045788505E-01    8.7167128949515216E-01
Br    2.6069417558108821E-01    8.6953007262537707E-01    7.6752302198169964E-01