 # Version information for this restart file 
 # current date 2021-09-10 16:54:36.058
 # current working dir /projectsp/f_rcr78_1/MW/Hybrid_Perovskite/CsPbBr3/4x4/450K/WC
 # Program compiled at                              Fri Sep 13 14:50:45 EDT 2019
 # Program compiled on                             slepner083.amarel.rutgers.edu
 # Program compiled for                                                    local
 # Source code revision number                                       git:e35496b
 &GLOBAL
   PRINT_LEVEL  LOW
   PROJECT_NAME CPB_WC
   RUN_TYPE  MD
   WALLTIME 47:58:00
 &END GLOBAL
 &MOTION
   &MD
     ENSEMBLE  NVT
     STEPS  5000
     TIMESTEP     9.9999999999999989E-01
     STEP_START_VAL  5301
     TIME_START_VAL     5.3009999999995207E+03
     ECONS_START_VAL    -4.1079533489583409E+03
     TEMPERATURE     4.5000000000000000E+02
     COMVEL_TOL     1.0000000000000000E-08
     &THERMOSTAT
       TYPE  CSVR
       &CSVR
         TIMECON     9.9999999999999986E+01
         &THERMOSTAT_ENERGY
              -5.0934595690404627E-01
         &END THERMOSTAT_ENERGY
         &RNG_INIT
Wiener process for Thermostat # 1        1 F T F  -1.9228128035446179E-01        3184621946.0        3972152154.0        3539725338.0        1952811074.0        1831939375.0         170784536.0             12345.0             12345.0             12345.0             12345.0             12345.0             12345.0             12345.0             12345.0             12345.0             12345.0             12345.0             12345.0
         &END RNG_INIT
       &END CSVR
     &END THERMOSTAT
     &AVERAGES  T
       &RESTART_AVERAGES
         ITIMES_START  1
         AVECPU     2.9881352153545032E+02
         AVEHUGONIOT     0.0000000000000000E+00
         AVETEMP_BARO     0.0000000000000000E+00
         AVEPOT    -4.1081760488862647E+03
         AVEKIN     6.8097632818106701E-01
         AVETEMP     4.4939406533252958E+02
         AVEKIN_QM     0.0000000000000000E+00
         AVETEMP_QM     0.0000000000000000E+00
         AVEVOL     9.4099850951374901E+04
         AVECELL_A     4.5484453240405017E+01
         AVECELL_B     4.5484453240405017E+01
         AVECELL_C     4.5484453240405017E+01
         AVEALPHA     9.0000000000000000E+01
         AVEBETA     9.0000000000000000E+01
         AVEGAMMA     9.0000000000000000E+01
         AVE_ECONS    -3.0170594822198504E-01
         AVE_PRESS     0.0000000000000000E+00
         AVE_PXX     0.0000000000000000E+00
       &END RESTART_AVERAGES
     &END AVERAGES
   &END MD
   &PRINT
     &TRAJECTORY  SILENT
       &EACH
         MD  1
       &END EACH
     &END TRAJECTORY
     &VELOCITIES  SILENT
       &EACH
         MD  1
       &END EACH
     &END VELOCITIES
     &FORCES  SILENT
       &EACH
         MD  1
       &END EACH
     &END FORCES
     &STRESS  SILENT
       &EACH
         MD  1
       &END EACH
     &END STRESS
     &RESTART  SILENT
       BACKUP_COPIES  3
       &EACH
         MD  1
       &END EACH
     &END RESTART
     &RESTART_HISTORY  SILENT
       &EACH
         MD  5
       &END EACH
     &END RESTART_HISTORY
   &END PRINT
 &END MOTION
 &FORCE_EVAL
   METHOD  QS
   &DFT
     BASIS_SET_FILE_NAME BASIS_MOLOPT
     POTENTIAL_FILE_NAME GTH_POTENTIALS
     MULTIPLICITY  1
     CHARGE  0
     &SCF
       MAX_SCF  30
       EPS_SCF     1.0000000000000001E-05
       SCF_GUESS  ATOMIC
       &OT  T
         MINIMIZER  DIIS
         PRECONDITIONER  FULL_SINGLE_INVERSE
       &END OT
       &OUTER_SCF  T
         EPS_SCF     1.0000000000000001E-05
         MAX_SCF  10
       &END OUTER_SCF
       &PRINT
         &RESTART  OFF
         &END RESTART
       &END PRINT
     &END SCF
     &QS
       EPS_DEFAULT     1.0000000000000000E-10
       EXTRAPOLATION  ASPC
       METHOD  GPW
     &END QS
     &MGRID
       NGRIDS  4
       CUTOFF     5.0000000000000000E+02
       REL_CUTOFF     9.0000000000000000E+01
     &END MGRID
     &XC
       DENSITY_CUTOFF     1.0000000000000000E-10
       GRADIENT_CUTOFF     1.0000000000000000E-10
       TAU_CUTOFF     1.0000000000000000E-10
       &XC_FUNCTIONAL  NO_SHORTCUT
         &PBE  T
         &END PBE
       &END XC_FUNCTIONAL
     &END XC
     &POISSON
       PERIODIC  XYZ
     &END POISSON
     &LOCALIZE  T
       USE_HISTORY  T
       EPS_LOCALIZATION     1.0000000000000001E-05
       METHOD  JACOBI
       &PRINT
         &WANNIER_CENTERS  SILENT
           IONS+CENTERS  T
         &END WANNIER_CENTERS
         &WANNIER_SPREADS  SILENT
         &END WANNIER_SPREADS
       &END PRINT
     &END LOCALIZE
     &REAL_TIME_PROPAGATION
       INITIAL_WFN  SCF_WFN
     &END REAL_TIME_PROPAGATION
     &PRINT
       &MO_CUBES  SILENT
         WRITE_CUBE  F
         NLUMO  4
         NHOMO  4
         &EACH
           MD  10
         &END EACH
       &END MO_CUBES
       &E_DENSITY_CUBE  OFF
       &END E_DENSITY_CUBE
     &END PRINT
   &END DFT
   &SUBSYS
     &CELL
       A     2.4069336000000000E+01    0.0000000000000000E+00    0.0000000000000000E+00
       B     0.0000000000000000E+00    2.4069336000000000E+01    0.0000000000000000E+00
       C     0.0000000000000000E+00    0.0000000000000000E+00    2.4069336000000000E+01
       MULTIPLE_UNIT_CELL  1 1 1
     &END CELL
     &COORD
Cs    1.1771570821012034E-01    1.3373425366076711E-01    1.2833096115601519E-01
Pb    4.0773974120216321E-03   -1.0020030231461008E-02   -1.3985333774332448E-02
Br   -4.6508425749239718E-03    5.0241252856670906E-03    1.1121422386253638E-01
Br   -9.5269123205975123E-03    1.1710663676517245E-01   -1.8577066920160465E-02
Br    1.3051761956739391E-01   -3.4561044496870107E-02    2.7128959782612150E-02
Cs    3.6224064751284601E-01    1.1815998033223850E-01    1.2273760153534946E-01
Pb    2.5033301918137396E-01    4.3612631138021420E-03    6.9986326668600232E-03
Br    2.8016644463910484E-01   -1.3480959262728288E-02    1.4220450453291880E-01
Br    2.3695080623972495E-01    1.2216501237287211E-01    2.7331553440663535E-02
Br    3.7481150210987996E-01    3.3122944102633514E-03   -3.5904163096366665E-03
Cs    6.4426061936993162E-01    1.2547050456436656E-01    1.2465234545199376E-01
Pb    4.9822168633197644E-01    5.2719450695530188E-03    1.0204859643316159E-02
Br    4.8405808151417529E-01   -3.6363417553524291E-02    1.2176809828271243E-01
Br    5.2991069747349129E-01    1.3091438023457880E-01    2.4838047132491558E-02
Br    6.2013658819405937E-01   -2.0702505371815519E-02    2.4037450903335617E-02
Cs    8.8827518668230077E-01    1.2441591524697283E-01    9.9622804585538807E-02
Pb    7.5362770653848177E-01    5.2066705674926820E-04   -3.9548726203771931E-03
Br    7.7957348674684535E-01    2.8142702628305764E-02    1.1540884533555572E-01
Br    7.3850679440425704E-01    1.2689308850912728E-01   -1.7413049618739410E-02
Br    8.7700756393202195E-01   -2.2129308685907789E-02   -2.0708578194690429E-02
Cs    1.2343935345461564E-01    3.6997685400681052E-01    1.2350216150888148E-01
Pb    4.2739008387192740E-04    2.4656502464149849E-01   -4.1236979082372909E-03
Br    1.3938750204492893E-03    2.4652656612460683E-01    1.1584984354866662E-01
Br    3.1703503843962233E-03    3.8498435260980829E-01   -1.6346772140742011E-02
Br    1.1934360746709605E-01    2.5116084477668527E-01    1.7491494255992661E-02
Cs    3.7402083047925150E-01    3.4790960045682806E-01    1.3970244733221215E-01
Pb    2.4596678203372005E-01    2.4663822714575478E-01    3.4498222165814160E-03
Br    2.7087681949563525E-01    2.2899850590623969E-01    1.2307732296395785E-01
Br    2.8340640823211216E-01    3.5984822688097617E-01   -1.4331989194407253E-03
Br    3.7529662767508731E-01    2.1331097266008300E-01    6.9921062843852346E-03
Cs    6.1822179747948858E-01    3.7441959228537575E-01    1.2568211391714890E-01
Pb    5.0439739434875130E-01    2.4836523085512272E-01    6.3176241512757020E-03
Br    4.9588197715403931E-01    2.6753948887946694E-01    1.3027382896878623E-01
Br    4.7429616022899773E-01    3.6975134765165135E-01   -9.8027709252582074E-03
Br    6.2709370194932379E-01    2.6470758789573251E-01    3.0622032562227296E-02
Cs    8.8508025524218992E-01    3.8389390518134586E-01    1.4025143718714977E-01
Pb    7.4415612110277274E-01    2.4942819302089819E-01    2.0037007163799946E-03
Br    7.7252959080559735E-01    2.2166188394319095E-01    1.1972283646209862E-01
Br    7.7063895684217942E-01    3.8468147117777252E-01    3.2728156068717311E-02
Br    8.7433665047654108E-01    2.4748132708408155E-01   -2.0048151275477634E-02
Cs    1.1944613027061482E-01    5.7976405550054610E-01    1.3729581274470068E-01
Pb    2.1236860885689556E-03    5.0463406439201719E-01    1.1057453308134926E-02
Br   -9.2074430760249147E-03    4.8303320429692326E-01    1.3380014393009054E-01
Br    3.5792707405947248E-02    6.3646838480351997E-01    3.8557776934109292E-02
Br    1.2229360640605906E-01    4.7865838180548048E-01    1.0430960335884483E-02
Cs    3.5601259954888242E-01    6.3891725152755341E-01    1.0326818022685022E-01
Pb    2.5223268077030531E-01    4.9028930161318074E-01    7.4127369957232092E-03
Br    2.4449235389710894E-01    4.7488996808613798E-01    1.4088932996677422E-01
Br    2.3552565767008118E-01    6.1241337172564980E-01    2.8880098298845931E-02
Br    3.7429610061916246E-01    4.8855875983043734E-01   -2.1274933637323371E-03
Cs    6.3390017968029999E-01    6.2330079343169498E-01    9.7828282647218059E-02
Pb    5.0314149789102292E-01    5.0908910938132745E-01    2.4292419472742273E-03
Br    5.0458145929315468E-01    4.7837970960545467E-01    1.2536961483212308E-01
Br    5.0731967951743306E-01    6.2761046584283231E-01    5.4298796901813953E-02
Br    6.3235479207303658E-01    4.9313678276045614E-01    2.3548127124229021E-02
Cs    8.7593537891100981E-01    6.1950836740683446E-01    1.1879370315025814E-01
Pb    7.5475592233784017E-01    4.9110503411925766E-01   -8.8031856680645428E-03
Br    7.5967862442979239E-01    5.2410693076219539E-01    1.2262916480539490E-01
Br    7.3141912841224177E-01    6.3683385649470570E-01   -2.8489578172152714E-02
Br    8.8191336557179545E-01    5.0159090909356741E-01   -4.9792236208310451E-03
Cs    1.4115647138466086E-01    8.6092673085612992E-01    1.3319054627560464E-01
Pb    9.5730989040935886E-03    7.5987169408330668E-01    5.0151624579350771E-03
Br   -8.1764003189143345E-03    7.8816013665543039E-01    1.1521163222766515E-01
Br    6.5480973446830392E-03    8.6943139321911811E-01   -5.2577426633584834E-02
Br    1.3191812512850412E-01    7.5424747241929835E-01    3.5079197285453841E-03
Cs    3.7370210436690537E-01    8.7349863936131933E-01    9.5924631889128559E-02
Pb    2.5645609524876534E-01    7.5608300810728379E-01   -8.5041346209008602E-03
Br    2.5017917820484958E-01    7.6262832861869301E-01    1.3476580557053466E-01
Br    2.6881429373826093E-01    8.6952717758586329E-01   -3.5554041068255000E-02
Br    3.8315701773696392E-01    7.2340222130000797E-01   -1.4963073409911886E-02
Cs    6.3275336659015891E-01    8.5599832322893388E-01    1.1693659476053019E-01
Pb    5.0233329405020744E-01    7.4794298297055750E-01    1.0625206532417782E-02
Br    4.9028731515128071E-01    7.8005825351284874E-01    1.3158268283644928E-01
Br    5.0365053040500818E-01    8.8053504123690052E-01   -2.9632554118308927E-02
Br    6.2654635178461915E-01    7.6360864776919446E-01   -1.4369843656283240E-02
Cs    8.7532233181771468E-01    8.8476923771040183E-01    1.1895457266339902E-01
Pb    7.6397748946133004E-01    7.4278913655805845E-01   -2.4000673711923413E-03
Br    7.7303844761240814E-01    7.2031248548397120E-01    1.1277781062764659E-01
Br    7.5631053683857030E-01    8.8238082478506030E-01    3.3197066744494262E-02
Br    8.8156359433043263E-01    7.3673795070964787E-01   -9.8146251653069613E-03
Cs    1.1705081002123484E-01    1.3594224301777671E-01    3.6146446011665528E-01
Pb   -4.7382869938576494E-03   -2.5499416549548161E-03    2.5155071427301279E-01
Br    5.6356928683330566E-02    2.7401323253562963E-03    3.4810207712922953E-01
Br   -1.9778813004196886E-03    1.1748740370795520E-01    2.4568697381369695E-01
Br    1.3661937790801768E-01   -9.4972926820190897E-03    1.9264418375724979E-01
Cs    3.6892529104315563E-01    1.2707060466553768E-01    3.6169796163762796E-01
Pb    2.4334004255951652E-01   -1.4509370792367988E-02    2.5539201071176260E-01
Br    2.2691512920859963E-01    2.7376335726899334E-02    3.8128348535914180E-01
Br    2.3786542856211004E-01    1.2033858852755927E-01    2.6575001972662848E-01
Br    3.8131483881439299E-01    1.4089823757222782E-03    2.9123404862406510E-01
Cs    6.3098796188398376E-01    1.3908692203298104E-01    3.7366097568331791E-01
Pb    5.1298552929792429E-01   -1.3881448209312185E-02    2.5296219164220168E-01
Br    5.4351904355242009E-01    1.5977198315627619E-02    3.7289897723034016E-01
Br    5.0304017005436008E-01    1.1978384069737341E-01    2.1220141982551505E-01
Br    6.3309830216692708E-01   -4.5937154215204548E-03    2.3868092726437726E-01
Cs    8.6969164886532824E-01    1.2898782934646308E-01    3.5114559445481774E-01
Pb    7.6026006190617212E-01    4.7523582052115699E-03    2.3909491493804691E-01
Br    7.4916825131635889E-01    1.3693024635850098E-03    3.6761311105365396E-01
Br    7.2802929800693894E-01    1.2951803252277724E-01    2.5483216356340765E-01
Br    8.7587782448539664E-01    4.6068451209470484E-03    2.6698247414230991E-01
Cs    1.0884375517389391E-01    3.7434892614043452E-01    3.7696382164942660E-01
Pb    1.6898488907519599E-03    2.4633746379291882E-01    2.4376622187130295E-01
Br    1.3438540274003598E-02    2.3753383949048362E-01    3.7044434107201113E-01
Br   -1.1600482177605958E-02    3.7140679181664493E-01    2.6868651713108410E-01
Br    1.2652442772760086E-01    2.5399569757616330E-01    2.2416830742101343E-01
Cs    3.8642248200506241E-01    3.6250097820554272E-01    3.7192225198239837E-01
Pb    2.4501203503463481E-01    2.3729038591704371E-01    2.5007214295714303E-01
Br    2.2073978003542169E-01    2.2028204705005908E-01    3.8195884130042834E-01
Br    2.3388227976903544E-01    3.6734716323875705E-01    2.8007813536369919E-01
Br    3.7301764857498970E-01    2.4135318703009567E-01    2.5901463600134689E-01
Cs    6.2140797871850106E-01    3.7867766288077631E-01    3.7498630689264589E-01
Pb    5.0944591419191820E-01    2.3995518304658800E-01    2.4535285635694606E-01
Br    4.9330549109991029E-01    2.3534186872731852E-01    3.7805245476344873E-01
Br    4.8766316611691601E-01    3.7396765520978581E-01    2.6238319089867196E-01
Br    6.2894618077323172E-01    2.6263144370076869E-01    2.5414209913368402E-01
Cs    8.9626658978997620E-01    3.8496486202518110E-01    3.8555045424096862E-01
Pb    7.5783380481151796E-01    2.5497402047718398E-01    2.4655638779784489E-01
Br    7.4490970260587730E-01    2.7229800566653789E-01    3.6657692835909367E-01
Br    7.6243370792421772E-01    3.8152047328401739E-01    2.2138013117331126E-01
Br    8.7342591466804465E-01    2.3939152971671762E-01    2.3553960281248054E-01
Cs    1.1412592767296563E-01    6.3775339449293300E-01    3.8626058010125536E-01
Pb   -3.9521816433180880E-03    4.9208022553998609E-01    2.6720931858272357E-01
Br    2.9800156768892534E-02    4.9505847654919771E-01    3.8642053190638764E-01
Br    1.6267529498294128E-02    6.2003158236054468E-01    2.7912433814081589E-01
Br    1.1349957787180887E-01    4.5865870767993466E-01    2.4206351493925937E-01
Cs    4.1208810592867012E-01    6.3606110063342414E-01    4.0285213902556882E-01
Pb    2.3525616751082279E-01    4.8806017601618290E-01    2.7123710587507616E-01
Br    2.0000793575765283E-01    5.0253537302467133E-01    3.9505957084645438E-01
Br    2.2595858817631281E-01    6.1481113944807497E-01    2.2903636084927059E-01
Br    3.6228153638320848E-01    5.0116806689545879E-01    2.6521830386450818E-01
Cs    6.2433598802413237E-01    5.8579493810000471E-01    3.8610039949027053E-01
Pb    4.9109139038751920E-01    4.9795798974112954E-01    2.6012534525360387E-01
Br    5.0852272069915461E-01    5.0148903644779819E-01    3.8456870834562595E-01
Br    5.0231865764739525E-01    6.1366270438421477E-01    2.5113377350971455E-01
Br    6.2661485070027922E-01    4.7259990618125092E-01    2.5602111876273032E-01
Cs    8.6365390817224119E-01    6.4221831833490761E-01    3.7609543432011316E-01
Pb    7.5282576821669533E-01    5.0037806179625188E-01    2.4062515905914758E-01
Br    7.5915822948897449E-01    4.9377867149524146E-01    3.6942154324399645E-01
Br    7.3972428703626714E-01    6.2961237400608971E-01    2.6499837566848938E-01
Br    8.7621975219202697E-01    5.0413301907616870E-01    2.5621454219971551E-01
Cs    1.1015877859389041E-01    8.8221676989905795E-01    3.8441543148543655E-01
Pb   -7.1383942460943100E-03    7.4254276188056134E-01    2.4520932830083653E-01
Br   -3.4776863966257614E-02    7.4898885369038126E-01    3.6723672463759038E-01
Br   -1.8051226222682296E-02    8.6129670652984203E-01    2.6154358875406925E-01
Br    1.2093587513125048E-01    7.5296555289184808E-01    2.7782482999075198E-01
Cs    3.8219003497358711E-01    8.7953146672055726E-01    3.7348747976626567E-01
Pb    2.4625069405486374E-01    7.3279839357784482E-01    2.5957435930238809E-01
Br    2.6164471888435503E-01    6.9746196881542166E-01    3.7890233091082570E-01
Br    2.2646420723837599E-01    8.7459615355946252E-01    2.9298027252758940E-01
Br    3.7620143837165299E-01    7.4740887823629354E-01    2.5364912336780382E-01
Cs    6.3900005891756206E-01    8.9708644874353849E-01    4.0540379058186832E-01
Pb    4.9623693714167705E-01    7.3745591465197213E-01    2.5108057586090143E-01
Br    5.0467419042657580E-01    7.3177851888546430E-01    3.7219375468633470E-01
Br    5.1422601946281499E-01    8.6839460150028047E-01    2.8460630735613474E-01
Br    6.2502253683482079E-01    7.3707756489497012E-01    2.0455401879582671E-01
Cs    8.7404172757308518E-01    8.7572516412596113E-01    3.6990329177221754E-01
Pb    7.4918529696483305E-01    7.5488893537043933E-01    2.3634731907191686E-01
Br    7.4151940853720233E-01    7.5115752356974641E-01    3.6670519130532142E-01
Br    7.5531682367011443E-01    8.8065443184207082E-01    2.3951731362571196E-01
Br    8.6641721376932312E-01    7.2043541093278984E-01    2.2827958926334427E-01
Cs    1.2715376856792590E-01    1.2917530442469469E-01    6.3027948272804846E-01
Pb    6.3294479603292000E-03   -1.9406878123561654E-03    5.0062258638963075E-01
Br   -2.5001064719143408E-02   -2.0453248224248235E-02    6.1615523685424090E-01
Br    3.3030443839510849E-02    1.1799881382531027E-01    5.1539065258872374E-01
Br    1.3103550973784436E-01   -3.1298289867277305E-02    5.3516856807692159E-01
Cs    3.7348500584147315E-01    1.3514603432450481E-01    6.1308544545245403E-01
Pb    2.4597744025283641E-01    1.7706065418757048E-03    4.9301142681040189E-01
Br    2.8313477105019902E-01   -1.0299753231119401E-02    6.1855589423103208E-01
Br    2.2481157381291272E-01    1.2735226641749522E-01    5.1739516556295972E-01
Br    3.8954251424412356E-01    1.3307911042507451E-02    4.4873780621977438E-01
Cs    6.2982872805988788E-01    1.3545643301813895E-01    6.2656329345750816E-01
Pb    5.1138882197219793E-01    1.3188818297403385E-02    4.9718199903735000E-01
Br    4.8239855780451629E-01    4.2046692884927357E-02    6.2897286381669471E-01
Br    5.4003480399863824E-01    1.3159273297970964E-01    5.0096220890524912E-01
Br    6.4070238352072850E-01   -3.8635775079807230E-03    5.2932792919563398E-01
Cs    8.9835547468887555E-01    1.2254232347659398E-01    6.0867699303214939E-01
Pb    7.6681473472863959E-01    1.4707219385313794E-02    5.0181110801597506E-01
Br    8.0355620910381698E-01    1.1702381611943154E-02    6.2850672571851651E-01
Br    7.5366473907189091E-01    1.3105572404394350E-01    4.6749507485351000E-01
Br    8.8205146091288622E-01    1.9275786660110896E-02    4.7308566991929263E-01
Cs    1.2459927744824506E-01    3.7683880423228516E-01    6.3500254041326620E-01
Pb   -3.8700164238089406E-03    2.3790482084548492E-01    4.9830577824756239E-01
Br   -2.4453171939795557E-02    2.3993623363402988E-01    6.2105883631952685E-01
Br   -2.8507564500092245E-02    3.7634707346934154E-01    5.1921352023810208E-01
Br    1.0902477343995008E-01    2.8376998880642113E-01    5.1872914603095199E-01
Cs    3.4391452415572493E-01    3.6087867976124705E-01    6.6179502411410662E-01
Pb    2.2871919231046298E-01    2.5152911306486242E-01    4.9909133151895496E-01
Br    2.4154456951662792E-01    2.8115313668786884E-01    6.3285038103474867E-01
Br    2.4042435853333932E-01    3.7712445082203261E-01    4.9330476616524171E-01
Br    3.7824793177376331E-01    2.4848170454965265E-01    4.8889903118943440E-01
Cs    6.3460414387305475E-01    3.9261583473133815E-01    6.1211549489287387E-01
Pb    5.0023386504969247E-01    2.4503471130134186E-01    5.0487959090489032E-01
Br    4.9580740500572767E-01    2.4436716280017476E-01    6.3337711843983324E-01
Br    5.1948929400129151E-01    3.6720704444610841E-01    4.9805827652607693E-01
Br    6.4386640621407920E-01    2.7285526654153508E-01    5.1784974959623919E-01
Cs    8.7469297962719028E-01    3.7099954067940666E-01    6.4314496478728322E-01
Pb    7.5449908216744344E-01    2.5918262770757156E-01    4.9453090313410542E-01
Br    7.7160688750690454E-01    2.5786485769589990E-01    6.2456518190125954E-01
Br    7.8356049874251066E-01    3.7533002130057841E-01    4.8743041493294026E-01
Br    8.8784608754914562E-01    1.9536949958148123E-01    4.9093199998712272E-01
Cs    1.1961777979212494E-01    6.1543374146141017E-01    6.4493552532665355E-01
Pb    2.5775619868254503E-03    4.9717038844711459E-01    5.1685403278675990E-01
Br   -3.5170870797476786E-02    5.0524859377088494E-01    6.3205531352071243E-01
Br   -4.5098347222970884E-03    6.2245523130702707E-01    5.2239018847018104E-01
Br    1.2365624376785783E-01    5.0249054417709893E-01    5.4969835382156718E-01
Cs    3.9641378485650564E-01    6.4178924361148493E-01    6.4095756365347367E-01
Pb    2.4406231419711757E-01    5.2181599490543229E-01    5.1893392064727717E-01
Br    2.5580339283761200E-01    4.8047705499672066E-01    6.3809077208853038E-01
Br    2.2543978855503871E-01    6.3641668280261199E-01    5.4572988619329632E-01
Br    3.5690199649405935E-01    5.0494830299230531E-01    4.6200353661284432E-01
Cs    6.3589386910228729E-01    6.4792036657062591E-01    6.2380557275544579E-01
Pb    4.8089802207662558E-01    4.8244560745334170E-01    4.9471683588571380E-01
Br    4.7404361674181328E-01    5.0245270616306981E-01    6.3149956826754639E-01
Br    5.1448318012203798E-01    6.1908991603570140E-01    5.1034132843876001E-01
Br    6.3681962340720388E-01    4.7602483927734401E-01    4.9880542977822445E-01
Cs    8.6526549628932958E-01    6.2654958307385311E-01    6.1132000893322325E-01
Pb    7.5976514961505015E-01    5.0393188637449449E-01    4.9225851266846898E-01
Br    7.5602927899618544E-01    5.0851213840855680E-01    6.1079442486913071E-01
Br    7.3104800201050613E-01    6.2721010738550953E-01    4.8101413721449748E-01
Br    8.8069365344924966E-01    5.2588552848500392E-01    4.7004241815909636E-01
Cs    9.8184217019733053E-02    8.6943677527473384E-01    6.2348352059368528E-01
Pb   -9.3015802886771554E-03    7.4619317603442548E-01    4.8866831549044432E-01
Br    4.0238475073194595E-03    7.5920138960915118E-01    6.1384253817301282E-01
Br   -7.8372618697501260E-03    8.7470168211561150E-01    4.6585726623352186E-01
Br    1.1467570167104596E-01    7.7574380380557850E-01    5.0112807293523465E-01
Cs    3.6909048760701896E-01    8.5210498955457992E-01    5.9910432711213002E-01
Pb    2.4460417908940929E-01    7.5174931049457883E-01    4.9861491665716778E-01
Br    2.2973702500234511E-01    7.7668391925616387E-01    6.3194001397522015E-01
Br    2.7469773440353329E-01    8.7963595865743693E-01    4.8709264654114243E-01
Br    3.6837146359173023E-01    7.5175295687024202E-01    5.0493553186419526E-01
Cs    6.3960271286307024E-01    8.8753131449304845E-01    6.5019160383380170E-01
Pb    5.0594803792586629E-01    7.4835463793519452E-01    4.9893777813799256E-01
Br    5.1166483187142864E-01    7.5122461247400674E-01    6.2320524172085856E-01
Br    5.0643614885575039E-01    8.8316436542992438E-01    4.8469222129892697E-01
Br    6.2404831763331514E-01    7.3412356658422373E-01    5.1445743450274806E-01
Cs    8.8515781327220722E-01    8.5489473243962222E-01    6.0304876750318415E-01
Pb    7.4211049809782526E-01    7.5109975688227892E-01    4.8526568149145305E-01
Br    7.5409055782611945E-01    7.5184703878765047E-01    6.1107412132949190E-01
Br    7.8500037387850996E-01    8.7976714495051900E-01    4.9440349903178399E-01
Br    8.6520599316105218E-01    7.3694831386685666E-01    5.1462916212369358E-01
Cs    1.3262863937333022E-01    1.3067863540425209E-01    8.5312620702686237E-01
Pb   -7.4647174013782363E-03    4.5540300984687155E-03    7.4804097978723394E-01
Br    1.3646536852301504E-02    9.4344706659081658E-03    8.6483378014900869E-01
Br    1.1655661065090814E-02    1.2691177923025457E-01    7.5340333625217604E-01
Br    1.0896906145607488E-01   -8.5263507673518646E-03    7.2675284005767737E-01
Cs    3.5957115113082783E-01    1.1572442541358526E-01    8.8138990080880153E-01
Pb    2.4188571395215450E-01    4.8734994017545991E-03    7.3535482108471095E-01
Br    2.2113614671957152E-01    2.1679131828576961E-02    8.7940548176415390E-01
Br    2.4236210549712311E-01    1.4032455155772447E-01    7.3295231230908786E-01
Br    3.5782504708782736E-01    2.7901374803120344E-02    7.6376778466313844E-01
Cs    5.9176565360535271E-01    1.1618867523813015E-01    8.7137539064445479E-01
Pb    4.9280264085095649E-01   -1.4252669857191126E-03    7.4656854604515366E-01
Br    5.2493975018904993E-01   -1.7228125302349025E-02    8.7045923032219341E-01
Br    4.9764755768898900E-01    1.2155264596880398E-01    7.7911560619274667E-01
Br    6.1604910466187779E-01   -2.9509421149907021E-03    7.3659459001889205E-01
Cs    8.6000459452968270E-01    1.4536523517365232E-01    8.7024601307987715E-01
Pb    7.6115503040865506E-01    1.3297873988406221E-02    7.4437693471863420E-01
Br    7.3168469495863975E-01   -4.1969115584808928E-03    8.5484318891385913E-01
Br    7.3085453798265887E-01    1.3642926276979506E-01    7.5616815667691761E-01
Br    8.6622035871818082E-01    3.3616995309476858E-02    7.7787776532380548E-01
Cs    1.1293911340076837E-01    3.7626188934281307E-01    8.8874481790008486E-01
Pb   -3.6603835313457514E-03    2.5693240407600837E-01    7.5089499867093867E-01
Br    3.0470595967406386E-03    2.5141089146311962E-01    8.7560191800271003E-01
Br    1.0408076796878441E-03    3.8114906111949737E-01    7.4390140033112861E-01
Br    1.1889740156764629E-01    2.5600906886203706E-01    7.5731091924710980E-01
Cs    3.7287692604201417E-01    3.5219291988716628E-01    8.7307723494312894E-01
Pb    2.4123784070639159E-01    2.5279448592349119E-01    7.6094275942479472E-01
Br    2.4212718257443161E-01    2.3459335241403534E-01    8.8602817699942138E-01
Br    2.4399837617508474E-01    3.8120711768999971E-01    7.7693549077397472E-01
Br    3.7542090905975523E-01    2.5344521340452164E-01    7.4643180454722813E-01
Cs    6.1358890899214302E-01    3.7810572156914579E-01    8.7161102097339538E-01
Pb    5.0293400824719947E-01    2.5731812137211996E-01    7.5304468675572578E-01
Br    4.9588310309598188E-01    2.5202130377931875E-01    8.8264526311779445E-01
Br    4.7994264168902978E-01    3.7288806179988843E-01    7.7765344584859941E-01
Br    6.1666487704359430E-01    2.8832969875288139E-01    7.3830770573023063E-01
Cs    8.7994335123919942E-01    3.8534284250665796E-01    8.9400782936282974E-01
Pb    7.4262145199889351E-01    2.5526567515917303E-01    7.4947068572615527E-01
Br    7.5946580877786307E-01    2.6326273181071264E-01    8.7827353050178236E-01
Br    7.4016721083551196E-01    3.8441713885347623E-01    7.4268195363255041E-01
Br    8.7362373588890552E-01    2.5508922587546345E-01    7.6079237503422281E-01
Cs    1.1813649974239095E-01    6.2774949624933307E-01    8.9013163155130104E-01
Pb   -9.4260274244105813E-03    5.1045814980268667E-01    7.5884039739860654E-01
Br    1.3778548658958369E-02    5.1909268288885169E-01    8.8004457248791645E-01
Br   -9.3782129675478842E-03    6.2146916244980055E-01    7.2736493580500883E-01
Br    1.2520466721664700E-01    5.2372440203762272E-01    7.6585321412281537E-01
Cs    3.6716770708512159E-01    6.1183524056636251E-01    8.7511419164651916E-01
Pb    2.5182358594249910E-01    5.1142424031607103E-01    7.5742578725820808E-01
Br    2.4358467513155932E-01    5.2725127629882107E-01    8.8896225076372681E-01
Br    2.7455510458554705E-01    6.2918042696878973E-01    7.1896820240893000E-01
Br    3.6739703109454330E-01    4.8341604494459828E-01    7.7852602667354109E-01
Cs    6.3508874846454444E-01    6.2972837683658722E-01    8.6626922833245945E-01
Pb    4.8397909152805640E-01    5.0056120525858727E-01    7.5012418154484783E-01
Br    5.2934533864453603E-01    5.1954118669707561E-01    8.7400579352886898E-01
Br    4.8965381765544508E-01    6.3249650008778424E-01    7.5359692895682440E-01
Br    6.1966914661028960E-01    4.9865529354517596E-01    7.1025704271773360E-01
Cs    8.6916302782875310E-01    6.1438017671728140E-01    8.8249332319435203E-01
Pb    7.4606287676500893E-01    5.0202621760657473E-01    7.3607937844761118E-01
Br    7.3118509894559891E-01    4.7646427124352808E-01    8.6886418190387205E-01
Br    7.4258637531047567E-01    6.1793364917435600E-01    7.7512683727619625E-01
Br    8.7000594966692979E-01    4.8718703084789361E-01    7.7914203998422205E-01
Cs    1.3115565648117375E-01    8.7561672189236517E-01    8.6174477427812313E-01
Pb   -7.5938464413037553E-03    7.5259293268197269E-01    7.3701615104827367E-01
Br   -8.8362895615078409E-03    7.2403009871075208E-01    8.5589856972690570E-01
Br   -2.8319533826654964E-02    8.8064005032314085E-01    7.4855960367455254E-01
Br    1.2243118764900479E-01    7.6973653921187957E-01    7.5808422507675721E-01