 # Version information for this restart file 
 # current date 2021-09-10 15:30:26.197
 # current working dir /projectsp/f_rcr78_1/MW/Hybrid_Perovskite/CsPbBr3/4x4/450K/WC
 # Program compiled at                              Fri Sep 13 14:50:45 EDT 2019
 # Program compiled on                             slepner083.amarel.rutgers.edu
 # Program compiled for                                                    local
 # Source code revision number                                       git:e35496b
 &GLOBAL
   PRINT_LEVEL  LOW
   PROJECT_NAME CPB_WC
   RUN_TYPE  MD
   WALLTIME 47:58:00
 &END GLOBAL
 &MOTION
   &MD
     ENSEMBLE  NVT
     STEPS  5000
     TIMESTEP     9.9999999999999989E-01
     STEP_START_VAL  5298
     TIME_START_VAL     5.2979999999995207E+03
     ECONS_START_VAL    -4.1079533489583409E+03
     TEMPERATURE     4.5000000000000000E+02
     COMVEL_TOL     1.0000000000000000E-08
     &THERMOSTAT
       TYPE  CSVR
       &CSVR
         TIMECON     9.9999999999999986E+01
         &THERMOSTAT_ENERGY
              -5.1406997624922224E-01
         &END THERMOSTAT_ENERGY
         &RNG_INIT
Wiener process for Thermostat # 1        1 F T F  -4.1952531519793546E-01         914732887.0        2716260105.0        2286306358.0        3182220965.0        1072382463.0        4035795483.0             12345.0             12345.0             12345.0             12345.0             12345.0             12345.0             12345.0             12345.0             12345.0             12345.0             12345.0             12345.0
         &END RNG_INIT
       &END CSVR
     &END THERMOSTAT
     &AVERAGES  T
       &RESTART_AVERAGES
         ITIMES_START  1
         AVECPU     2.9802956205640083E+02
         AVEHUGONIOT     0.0000000000000000E+00
         AVETEMP_BARO     0.0000000000000000E+00
         AVEPOT    -4.1081760476388508E+03
         AVEKIN     6.8094708506605683E-01
         AVETEMP     4.4937476703713588E+02
         AVEKIN_QM     0.0000000000000000E+00
         AVETEMP_QM     0.0000000000000000E+00
         AVEVOL     9.4099850951374901E+04
         AVECELL_A     4.5484453240405017E+01
         AVECELL_B     4.5484453240405017E+01
         AVECELL_C     4.5484453240405017E+01
         AVEALPHA     9.0000000000000000E+01
         AVEBETA     9.0000000000000000E+01
         AVEGAMMA     9.0000000000000000E+01
         AVE_ECONS    -3.0014491792251358E-01
         AVE_PRESS     0.0000000000000000E+00
         AVE_PXX     0.0000000000000000E+00
       &END RESTART_AVERAGES
     &END AVERAGES
   &END MD
   &PRINT
     &TRAJECTORY  SILENT
       &EACH
         MD  1
       &END EACH
     &END TRAJECTORY
     &VELOCITIES  SILENT
       &EACH
         MD  1
       &END EACH
     &END VELOCITIES
     &FORCES  SILENT
       &EACH
         MD  1
       &END EACH
     &END FORCES
     &STRESS  SILENT
       &EACH
         MD  1
       &END EACH
     &END STRESS
     &RESTART  SILENT
       BACKUP_COPIES  3
       &EACH
         MD  1
       &END EACH
     &END RESTART
     &RESTART_HISTORY  SILENT
       &EACH
         MD  5
       &END EACH
     &END RESTART_HISTORY
   &END PRINT
 &END MOTION
 &FORCE_EVAL
   METHOD  QS
   &DFT
     BASIS_SET_FILE_NAME BASIS_MOLOPT
     POTENTIAL_FILE_NAME GTH_POTENTIALS
     MULTIPLICITY  1
     CHARGE  0
     &SCF
       MAX_SCF  30
       EPS_SCF     1.0000000000000001E-05
       SCF_GUESS  ATOMIC
       &OT  T
         MINIMIZER  DIIS
         PRECONDITIONER  FULL_SINGLE_INVERSE
       &END OT
       &OUTER_SCF  T
         EPS_SCF     1.0000000000000001E-05
         MAX_SCF  10
       &END OUTER_SCF
       &PRINT
         &RESTART  OFF
         &END RESTART
       &END PRINT
     &END SCF
     &QS
       EPS_DEFAULT     1.0000000000000000E-10
       EXTRAPOLATION  ASPC
       METHOD  GPW
     &END QS
     &MGRID
       NGRIDS  4
       CUTOFF     5.0000000000000000E+02
       REL_CUTOFF     9.0000000000000000E+01
     &END MGRID
     &XC
       DENSITY_CUTOFF     1.0000000000000000E-10
       GRADIENT_CUTOFF     1.0000000000000000E-10
       TAU_CUTOFF     1.0000000000000000E-10
       &XC_FUNCTIONAL  NO_SHORTCUT
         &PBE  T
         &END PBE
       &END XC_FUNCTIONAL
     &END XC
     &POISSON
       PERIODIC  XYZ
     &END POISSON
     &LOCALIZE  T
       USE_HISTORY  T
       EPS_LOCALIZATION     1.0000000000000001E-05
       METHOD  JACOBI
       &PRINT
         &WANNIER_CENTERS  SILENT
           IONS+CENTERS  T
         &END WANNIER_CENTERS
         &WANNIER_SPREADS  SILENT
         &END WANNIER_SPREADS
       &END PRINT
     &END LOCALIZE
     &REAL_TIME_PROPAGATION
       INITIAL_WFN  SCF_WFN
     &END REAL_TIME_PROPAGATION
     &PRINT
       &MO_CUBES  SILENT
         WRITE_CUBE  F
         NLUMO  4
         NHOMO  4
         &EACH
           MD  10
         &END EACH
       &END MO_CUBES
       &E_DENSITY_CUBE  OFF
       &END E_DENSITY_CUBE
     &END PRINT
   &END DFT
   &SUBSYS
     &CELL
       A     2.4069336000000000E+01    0.0000000000000000E+00    0.0000000000000000E+00
       B     0.0000000000000000E+00    2.4069336000000000E+01    0.0000000000000000E+00
       C     0.0000000000000000E+00    0.0000000000000000E+00    2.4069336000000000E+01
       MULTIPLE_UNIT_CELL  1 1 1
     &END CELL
     &COORD
Cs    1.1796125360904985E-01    1.3399793510366156E-01    1.2812883839958433E-01
Pb    4.0088919913202166E-03   -9.9839526941177190E-03   -1.3962765296245978E-02
Br   -4.5278931908157684E-03    5.3110839975028740E-03    1.1157197329578884E-01
Br   -9.3465123249536469E-03    1.1729717153497582E-01   -1.8315918622389075E-02
Br    1.3046361220008668E-01   -3.5007287046313708E-02    2.7243768975131612E-02
Cs    3.6223625666115017E-01    1.1822285521253967E-01    1.2280852900828025E-01
Pb    2.5053578474550631E-01    4.4121882476686010E-03    7.2419222878046790E-03
Br    2.7962108156776622E-01   -1.3893043372010352E-02    1.4202725635945165E-01
Br    2.3708844131760398E-01    1.2219812432889625E-01    2.7574080148706170E-02
Br    3.7518612579853938E-01    3.1400089152316658E-03   -3.6986975789974766E-03
Cs    6.4402171592120661E-01    1.2553323191435276E-01    1.2455793059183824E-01
Pb    4.9807933058812520E-01    5.4287826939417817E-03    1.0030624885325991E-02
Br    4.8426576869219823E-01   -3.6224107045529086E-02    1.2155031925727423E-01
Br    5.2992949126899480E-01    1.3068235124814265E-01    2.4343132598197592E-02
Br    6.1964706897953958E-01   -2.1028020470731115E-02    2.4327483367630645E-02
Cs    8.8811504828722887E-01    1.2455078606861213E-01    9.9923283121974016E-02
Pb    7.5365974528349744E-01    7.0185580958931077E-04   -3.8932549311099132E-03
Br    7.7970934700274286E-01    2.7981520941013874E-02    1.1503924310570467E-01
Br    7.3884614295293560E-01    1.2739053011115567E-01   -1.6937782136555023E-02
Br    8.7694392421518397E-01   -2.2384912723201467E-02   -2.0885988627597340E-02
Cs    1.2323533617552762E-01    3.6965912033953524E-01    1.2341462332357399E-01
Pb    4.5751137421588025E-04    2.4667190021419835E-01   -3.9410255959727563E-03
Br    1.5352187518915873E-03    2.4659338685040894E-01    1.1604871942744031E-01
Br    3.4945786230068387E-03    3.8528029232124567E-01   -1.6210517161413748E-02
Br    1.1925058806047074E-01    2.5110860855232575E-01    1.7169631016194294E-02
Cs    3.7378859582052737E-01    3.4788111341955202E-01    1.3912316273802802E-01
Pb    2.4578113989139150E-01    2.4684169795942998E-01    3.7196218162647066E-03
Br    2.7075576910803217E-01    2.2840745034101023E-01    1.2301870466526746E-01
Br    2.8348707917185589E-01    3.5973829330959245E-01   -1.3648921336974920E-03
Br    3.7521912536566848E-01    2.1308347331588054E-01    6.2523359614514353E-03
Cs    6.1866177950668144E-01    3.7418034758485513E-01    1.2610449534670076E-01
Pb    5.0458101618961670E-01    2.4881326995909211E-01    6.5971432774099541E-03
Br    4.9593991633561096E-01    2.6742680628785542E-01    1.3009041940143395E-01
Br    4.7447141501949491E-01    3.7018021669124485E-01   -1.0475816863534836E-02
Br    6.2711012444562564E-01    2.6479852854263086E-01    3.1159665711483694E-02
Cs    8.8468835839817395E-01    3.8411484762950743E-01    1.4033094675136290E-01
Pb    7.4390727722645533E-01    2.4920854972456993E-01    2.1935172611622887E-03
Br    7.7226986749525983E-01    2.2211183226316875E-01    1.1949528494691584E-01
Br    7.7051845360901261E-01    3.8502077775849186E-01    3.1982334720559925E-02
Br    8.7393494310515119E-01    2.4734990941066987E-01   -2.0214641012534791E-02
Cs    1.1937807093153847E-01    5.7992886234514174E-01    1.3744518436377282E-01
Pb    2.0316589959396146E-03    5.0464072200927768E-01    1.1152521509090687E-02
Br   -9.8466042983074344E-03    4.8301936062274520E-01    1.3412292159927619E-01
Br    3.5697419066153147E-02    6.3598538672685279E-01    3.8422393062282109E-02
Br    1.2246824313092929E-01    4.7867266813736092E-01    1.0686777618374279E-02
Cs    3.5626766932449289E-01    6.3881700537321207E-01    1.0307095567117164E-01
Pb    2.5222228880926362E-01    4.9010135433973473E-01    7.0244647162548898E-03
Br    2.4509880733525977E-01    4.7433004547624635E-01    1.4026912610980299E-01
Br    2.3542790340705216E-01    6.1212580551988616E-01    2.8772617542573358E-02
Br    3.7436599599853398E-01    4.8905080308448684E-01   -2.7453407277335190E-03
Cs    6.3375842107054015E-01    6.2333522123841223E-01    9.7593538127655990E-02
Pb    5.0305515884113727E-01    5.0909759999153703E-01    2.6289869843939421E-03
Br    5.0439379433818399E-01    4.7880794544130356E-01    1.2589293197339349E-01
Br    5.0731808971101111E-01    6.2761733600275527E-01    5.4291935766265870E-02
Br    6.3227265595942095E-01    4.9260615957135634E-01    2.3646244719834671E-02
Cs    8.7602754257833182E-01    6.1959618806527272E-01    1.1897445233610968E-01
Pb    7.5496150861750000E-01    4.9081044256173034E-01   -8.4132591061817676E-03
Br    7.5933896788319544E-01    5.2405328518656491E-01    1.2290699747042787E-01
Br    7.3163092320684453E-01    6.3680218169671354E-01   -2.8233424267338679E-02
Br    8.8165572456455110E-01    5.0163368738717451E-01   -5.1961971518645119E-03
Cs    1.4141595664791040E-01    8.6086726280469039E-01    1.3291669835915598E-01
Pb    9.4908382684744941E-03    7.5985984823064279E-01    5.0798936188815400E-03
Br   -7.9691962620259838E-03    7.8823712538814161E-01    1.1582410135910599E-01
Br    6.9211473118532194E-03    8.6962525680186353E-01   -5.2262924722319283E-02
Br    1.3197786679645568E-01    7.5443048918230282E-01    3.3019102052180621E-03
Cs    3.7362329673129452E-01    8.7346140669049022E-01    9.6418234697523933E-02
Pb    2.5639045671722877E-01    7.5613020397796959E-01   -8.3847102768093117E-03
Br    2.5039866086351242E-01    7.6285901519864208E-01    1.3463134856237741E-01
Br    2.6936114669028988E-01    8.6962942249671238E-01   -3.5360430412502447E-02
Br    3.8307193200392492E-01    7.2318158445551362E-01   -1.4801204829086999E-02
Cs    6.3267138208205198E-01    8.5602067744175259E-01    1.1718171030325680E-01
Pb    5.0221522711696465E-01    7.4797167766740769E-01    1.0674129725825305E-02
Br    4.9059365091324220E-01    7.7980119314512331E-01    1.3160015009302886E-01
Br    5.0366119504269380E-01    8.8028793764303992E-01   -2.9711786380397353E-02
Br    6.2640808231257006E-01    7.6337152998662627E-01   -1.3811038007044821E-02
Cs    8.7554124625609475E-01    8.8439804941997335E-01    1.1899859671061160E-01
Pb    7.6386501944129359E-01    7.4272215895859084E-01   -2.3144744678293781E-03
Br    7.7307172864256279E-01    7.2033435810149593E-01    1.1279162357364970E-01
Br    7.5697449538748995E-01    8.8208274624819982E-01    3.3356376879883548E-02
Br    8.8119119139528679E-01    7.3664380832980103E-01   -1.0066494906204737E-02
Cs    1.1694743365201511E-01    1.3613297242941910E-01    3.6129927543918738E-01
Pb   -4.8372595902887805E-03   -2.7088769619829636E-03    2.5159034678885195E-01
Br    5.6532758543378220E-02    2.9377558924128131E-03    3.4785731317325469E-01
Br   -1.7692468420978510E-03    1.1745485056021557E-01    2.4538578025882724E-01
Br    1.3696342710243214E-01   -9.3663967843007033E-03    1.9296100382356801E-01
Cs    3.6914480257759119E-01    1.2688920457589287E-01    3.6156839050240031E-01
Pb    2.4328575282824627E-01   -1.4561932142116535E-02    2.5533394542773025E-01
Br    2.2705159675097922E-01    2.7363570888402817E-02    3.8089472339784947E-01
Br    2.3795867556379272E-01    1.2046661118049930E-01    2.6569732900939752E-01
Br    3.8119578034921631E-01    1.6153726791813094E-03    2.9143734602488436E-01
Cs    6.3076269808947838E-01    1.3874822392924749E-01    3.7382280761301445E-01
Pb    5.1286893436081660E-01   -1.3935866229393138E-02    2.5272303815692637E-01
Br    5.4313884522082923E-01    1.6276379773403259E-02    3.7293050369620473E-01
Br    5.0299966421090436E-01    1.1945165031048120E-01    2.1285341655703255E-01
Br    6.3354972925725128E-01   -4.4769486270000601E-03    2.3846690472125681E-01
Cs    8.6934989179258804E-01    1.2902113180734678E-01    3.5107305027881630E-01
Pb    7.6028051922144779E-01    4.6508310533856321E-03    2.3896395325481593E-01
Br    7.4859559893537231E-01    1.5207948245952001E-03    3.6736835152263259E-01
Br    7.2795392809140591E-01    1.2897880095216036E-01    2.5502577827228151E-01
Br    8.7525711294570263E-01    4.3368706924299455E-03    2.6730688758559640E-01
Cs    1.0890526723526685E-01    3.7414298703009513E-01    3.7691324395218195E-01
Pb    1.6861889188176066E-03    2.4609110075480445E-01    2.4388591123003717E-01
Br    1.3643087801344489E-02    2.3750679455221479E-01    3.7016867496350192E-01
Br   -1.1704014519311792E-02    3.7190670682270788E-01    2.6886894624978036E-01
Br    1.2621468765049904E-01    2.5388838475364817E-01    2.2373920320793406E-01
Cs    3.8640224061536327E-01    3.6250744745451674E-01    3.7206049131215785E-01
Pb    2.4478345394680598E-01    2.3752695666158397E-01    2.5001627620307043E-01
Br    2.2092310314791094E-01    2.2065982838986520E-01    3.8152680172617892E-01
Br    2.3387298438546880E-01    3.6690025732353021E-01    2.8008147975524766E-01
Br    3.7289210287052466E-01    2.4164966535357632E-01    2.5829811304945366E-01
Cs    6.2134227616241533E-01    3.7853970131424730E-01    3.7517093886840053E-01
Pb    5.0950688085740525E-01    2.3978783244565491E-01    2.4526910660597465E-01
Br    4.9315908164091743E-01    2.3552560280250631E-01    3.7771960175061675E-01
Br    4.8746055873928446E-01    3.7422119513889784E-01    2.6208328832435690E-01
Br    6.2914136030517120E-01    2.6265634758654893E-01    2.5373423297940195E-01
Cs    8.9610153464464648E-01    3.8462085846696797E-01    3.8530134243050967E-01
Pb    7.5769877440792543E-01    2.5480003104428572E-01    2.4639431010742679E-01
Br    7.4478841385182826E-01    2.7231751513077596E-01    3.6628590506418590E-01
Br    7.6198154637557525E-01    3.8162745615603805E-01    2.2112868536535302E-01
Br    8.7297721496196645E-01    2.3974125416443481E-01    2.3528360496835132E-01
Cs    1.1413097072030157E-01    6.3773592270866752E-01    3.8643065579692654E-01
Pb   -4.2284152974601565E-03    4.9213587531017206E-01    2.6695477307804821E-01
Br    2.9364543517594453E-02    4.9525655761332282E-01    3.8618617203375072E-01
Br    1.6386163109148814E-02    6.1991036806879873E-01    2.7895661585706999E-01
Br    1.1365265957526385E-01    4.5901480853272986E-01    2.4220055329296736E-01
Cs    4.1164645695464197E-01    6.3619149156844979E-01    4.0272749493895471E-01
Pb    2.3531348200724889E-01    4.8813068975761809E-01    2.7133703779848284E-01
Br    2.0021068074206355E-01    5.0258113756495559E-01    3.9537488598653464E-01
Br    2.2616099386157720E-01    6.1434346234125070E-01    2.2882432935256036E-01
Br    3.6222289348028586E-01    5.0100442561226133E-01    2.6478536411472703E-01
Cs    6.2406144856868151E-01    5.8566427700554968E-01    3.8605230570530247E-01
Pb    4.9127741847467143E-01    4.9812344249574825E-01    2.5978078008203104E-01
Br    5.0836960264593978E-01    5.0171604059922925E-01    3.8457034467749296E-01
Br    5.0203478980239891E-01    6.1441960020676611E-01    2.5103581328903174E-01
Br    6.2662649889941224E-01    4.7253899682311234E-01    2.5612921168116348E-01
Cs    8.6363610337322849E-01    6.4227293695038867E-01    3.7586049318993570E-01
Pb    7.5261652984972094E-01    5.0043977835853404E-01    2.4088319656101215E-01
Br    7.5944632823899638E-01    4.9410150972781625E-01    3.6939016284287096E-01
Br    7.3970372604945389E-01    6.3001331350749101E-01    2.6466800940621232E-01
Br    8.7614028973046998E-01    5.0414026095625486E-01    2.5651771827918302E-01
Cs    1.1001335455909271E-01    8.8218487955059777E-01    3.8466800725671746E-01
Pb   -7.2336617789346778E-03    7.4258035368806674E-01    2.4515325237417684E-01
Br   -3.4759941438486923E-02    7.4928661679917086E-01    3.6731189880650966E-01
Br   -1.8109220060766859E-02    8.6113273877914998E-01    2.6129592482914132E-01
Br    1.2087519511483154E-01    7.5336073743460241E-01    2.7817406789072102E-01
Cs    3.8249653049043608E-01    8.7959954436070176E-01    3.7346721821383944E-01
Pb    2.4599896025577545E-01    7.3278509997312824E-01    2.5895687892096336E-01
Br    2.6126651614590185E-01    6.9745304141206366E-01    3.7835806183332499E-01
Br    2.2637056832043423E-01    8.7488465179380859E-01    2.9310467139315405E-01
Br    3.7583366397494211E-01    7.4750674985183885E-01    2.5333095960493540E-01
Cs    6.3910033662553323E-01    8.9729964894589853E-01    4.0567462219923756E-01
Pb    4.9624659289812650E-01    7.3751757986683653E-01    2.5099632950285877E-01
Br    5.0450746975426397E-01    7.3154162150413049E-01    3.7213886647699024E-01
Br    5.1445530799514227E-01    8.6865345578328601E-01    2.8461752663131235E-01
Br    6.2517202472528932E-01    7.3720567258560310E-01    2.0453471377238031E-01
Cs    8.7418643446051614E-01    8.7538275398093202E-01    3.7026636055204082E-01
Pb    7.4878029362162946E-01    7.5478991877300905E-01    2.3643825298931487E-01
Br    7.4166736381938037E-01    7.5136193614024249E-01    3.6716187100373021E-01
Br    7.5561277299276031E-01    8.8072048949355020E-01    2.3981801093733898E-01
Br    8.6654843652187719E-01    7.2013125688763502E-01    2.2823318438549534E-01
Cs    1.2723660359762265E-01    1.2916696858498561E-01    6.3063691747232453E-01
Pb    6.3214809856357145E-03   -1.8893620485654300E-03    5.0057290545601818E-01
Br   -2.4727837378701805E-02   -2.0359604763652919E-02    6.1616393704670280E-01
Br    3.3067881555359717E-02    1.1827679990680297E-01    5.1527074506315917E-01
Br    1.3093802771535867E-01   -3.1013421586230754E-02    5.3536683084236003E-01
Cs    3.7320526923392400E-01    1.3546395289545454E-01    6.1319165217285265E-01
Pb    2.4601091565624508E-01    1.8602456576395790E-03    4.9293302204269279E-01
Br    2.8349904529896952E-01   -1.0080231015785174E-02    6.1858143781254360E-01
Br    2.2464453546384353E-01    1.2708864217761623E-01    5.1725586239961130E-01
Br    3.8971099341534760E-01    1.3138402336095778E-02    4.4870034563713707E-01
Cs    6.2984358451720179E-01    1.3557136307957549E-01    6.2673298634206731E-01
Pb    5.1132358590347593E-01    1.3123797463384818E-02    4.9722763006202558E-01
Br    4.8240660838016980E-01    4.2498972628451641E-02    6.2928490837023976E-01
Br    5.3977903766150259E-01    1.3180742510781318E-01    5.0064478150686964E-01
Br    6.4078749192468998E-01   -3.6123762980089348E-03    5.2934916691013623E-01
Cs    8.9820570991042503E-01    1.2251664988534884E-01    6.0853381209914670E-01
Pb    7.6698153414829173E-01    1.4623873521887916E-02    5.0179852339799935E-01
Br    8.0387470139574857E-01    1.1288190229883737E-02    6.2857787121040032E-01
Br    7.5362894894475119E-01    1.3133723490681634E-01    4.6792844947464057E-01
Br    8.8205754948185289E-01    1.9445338774646458E-02    4.7281040897493964E-01
Cs    1.2449107137197653E-01    3.7666084918541148E-01    6.3514719268900688E-01
Pb   -3.5646811181385190E-03    2.3768353633323705E-01    4.9837424765137389E-01
Br   -2.4388730980264003E-02    2.3971529167724509E-01    6.2119635186100686E-01
Br   -2.8365160319301003E-02    3.7669893684253886E-01    5.1965880924835395E-01
Br    1.0889540140159079E-01    2.8374907352136941E-01    5.1864974400942598E-01
Cs    3.4420938972801951E-01    3.6068262298186948E-01    6.6152369130655897E-01
Pb    2.2854895811381851E-01    2.5124905874286224E-01    4.9922644257991344E-01
Br    2.4172908273782034E-01    2.8110647482624240E-01    6.3271858044535600E-01
Br    2.4015476790935300E-01    3.7667596649201723E-01    4.9320044475648217E-01
Br    3.7857662668102277E-01    2.4863577046522436E-01    4.8938831800959975E-01
Cs    6.3447881666611816E-01    3.9263081619756790E-01    6.1159609461405784E-01
Pb    5.0012077746030303E-01    2.4486307859266937E-01    5.0489148223055436E-01
Br    4.9608643069497632E-01    2.4454452212755445E-01    6.3360973356019279E-01
Br    5.1989922433734792E-01    3.6728290368325545E-01    4.9812592389370020E-01
Br    6.4405643232475274E-01    2.7274218761538699E-01    5.1766753935256038E-01
Cs    8.7530616673439599E-01    3.7091637336017547E-01    6.4324557888209366E-01
Pb    7.5468680198568383E-01    2.5931680279629454E-01    4.9455203662430902E-01
Br    7.7167407671382648E-01    2.5805021117792887E-01    6.2476915900990526E-01
Br    7.8391485192516741E-01    3.7591977458957859E-01    4.8749356511279024E-01
Br    8.8763944623127944E-01    1.9497939485351709E-01    4.9110597817408297E-01
Cs    1.1999889982094217E-01    6.1569203539763784E-01    6.4482178785574007E-01
Pb    2.5400835654756219E-03    4.9729669645657237E-01    5.1698406630753357E-01
Br   -3.5128671384385017E-02    5.0543133017877873E-01    6.3228368588067596E-01
Br   -4.6237720578459832E-03    6.2233932583480156E-01    5.2224136086345996E-01
Br    1.2379763470934348E-01    5.0242233171702511E-01    5.4977855638142448E-01
Cs    3.9645713909758601E-01    6.4168612302771422E-01    6.4130833043957058E-01
Pb    2.4380676922568892E-01    5.2177995438981251E-01    5.1895214124209466E-01
Br    2.5556196355013111E-01    4.8023593590029640E-01    6.3856158290691489E-01
Br    2.2538778270559404E-01    6.3635266703103299E-01    5.4552844357047259E-01
Br    3.5645243349984435E-01    5.0489772842781688E-01    4.6257704147822903E-01
Cs    6.3598530672401310E-01    6.4832216231609374E-01    6.2366031516834475E-01
Pb    4.8088336619214123E-01    4.8235389489246328E-01    4.9490753444573787E-01
Br    4.7382874258457658E-01    5.0195302863172164E-01    6.3123194389364479E-01
Br    5.1467974261356553E-01    6.1899476999109615E-01    5.1026110209349018E-01
Br    6.3710302031018218E-01    4.7511607817229573E-01    4.9906844373106829E-01
Cs    8.6512120068028608E-01    6.2686084515692930E-01    6.1116322017466285E-01
Pb    7.5971402158023915E-01    5.0389859100648771E-01    4.9230662436942557E-01
Br    7.5592961058162400E-01    5.0869888137292685E-01    6.1055092339407091E-01
Br    7.3116796174085918E-01    6.2670015124570189E-01    4.8083412394810626E-01
Br    8.8071623180708747E-01    5.2579138680087500E-01    4.7007442580510433E-01
Cs    9.8043324072448146E-02    8.6969094889407705E-01    6.2349413959337441E-01
Pb   -9.0694931522842526E-03    7.4589818858589052E-01    4.8849442628543327E-01
Br    4.0709876675430372E-03    7.5943618282996517E-01    6.1402611534640728E-01
Br   -7.7920537168298006E-03    8.7472574059075370E-01    4.6567171418420833E-01
Br    1.1482952543997861E-01    7.7596104797049437E-01    5.0139640570726640E-01
Cs    3.6882425913663519E-01    8.5195324709704634E-01    5.9871877586325917E-01
Pb    2.4462385232932296E-01    7.5157593472754358E-01    4.9848040649978376E-01
Br    2.2964973754866996E-01    7.7672255664246792E-01    6.3190902960513939E-01
Br    2.7457042560847378E-01    8.7966759725278265E-01    4.8734433256799259E-01
Br    3.6885872967681582E-01    7.5162612092383341E-01    5.0516025006882781E-01
Cs    6.3938070635587951E-01    8.8712156159519839E-01    6.4966649133577525E-01
Pb    5.0612264927611872E-01    7.4856225860223025E-01    4.9872397594702356E-01
Br    5.1178433470624951E-01    7.5095518513687720E-01    6.2288705761337004E-01
Br    5.0655776503429584E-01    8.8302363183031030E-01    4.8449562259489887E-01
Br    6.2403585234078307E-01    7.3485589429267428E-01    5.1485412858918422E-01
Cs    8.8514026530530376E-01    8.5476842603568770E-01    6.0325927467480778E-01
Pb    7.4221107143148601E-01    7.5120502698469660E-01    4.8558262515915779E-01
Br    7.5406917606682899E-01    7.5128749206686973E-01    6.1111192839569350E-01
Br    7.8480432311068171E-01    8.7945734715835877E-01    4.9431461554634970E-01
Br    8.6573608329026941E-01    7.3741821080103054E-01    5.1436830844572057E-01
Cs    1.3306028738891593E-01    1.3075074686608285E-01    8.5333043691424848E-01
Pb   -7.0608608917366745E-03    4.6952793557839970E-03    7.4784292322742341E-01
Br    1.3809609351133742E-02    9.6822786038404194E-03    8.6475589852389190E-01
Br    1.1200705497575594E-02    1.2699307241387195E-01    7.5324613848075739E-01
Br    1.0905287188892243E-01   -8.4670012659818668E-03    7.2683935880280748E-01
Cs    3.5967674747710943E-01    1.1593030306063887E-01    8.8146139600682138E-01
Pb    2.4155208194804195E-01    4.7759458770800711E-03    7.3518073409949836E-01
Br    2.2117759379514296E-01    2.1920935633308523E-02    8.7931782317663365E-01
Br    2.4269048485982522E-01    1.4006489260602453E-01    7.3300955365149256E-01
Br    3.5827674313182284E-01    2.8048884876789110E-02    7.6407968242181346E-01
Cs    5.9184543555729818E-01    1.1615831260759912E-01    8.7160015876024455E-01
Pb    4.9291504940881442E-01   -1.3988128890486074E-03    7.4675022569656269E-01
Br    5.2486424218015215E-01   -1.7303561906019334E-02    8.7060370041997492E-01
Br    4.9726066501934013E-01    1.2153390632512177E-01    7.7917734894033208E-01
Br    6.1626375311746773E-01   -2.7307758223968776E-03    7.3679972284046191E-01
Cs    8.5999407657309757E-01    1.4497335462083139E-01    8.6989478169244050E-01
Pb    7.6131763581493195E-01    1.3421548472839471E-02    7.4434280526472285E-01
Br    7.3186122348457405E-01   -3.9815296547882021E-03    8.5480390319274335E-01
Br    7.3110377965288986E-01    1.3703345991975771E-01    7.5583411886908602E-01
Br    8.6628307494968859E-01    3.3389542134847509E-02    7.7813345043473381E-01
Cs    1.1296327701186171E-01    3.7598679890440001E-01    8.8853189327716375E-01
Pb   -3.7399393297085121E-03    2.5702241845687840E-01    7.5078628109274559E-01
Br    3.0289325871264258E-03    2.5112698302854053E-01    8.7569370289632209E-01
Br    1.0923890418629493E-03    3.8136669610888624E-01    7.4418373317256770E-01
Br    1.1867015070208321E-01    2.5595545726390423E-01    7.5676705311637427E-01
Cs    3.7285622235202021E-01    3.5230431622552966E-01    8.7312015309397539E-01
Pb    2.4157213479678627E-01    2.5284472941706360E-01    7.6111407768011963E-01
Br    2.4254110259697545E-01    2.3500054563442260E-01    8.8589942868660609E-01
Br    2.4382547466591162E-01    3.8205847442286844E-01    7.7740068775403381E-01
Br    3.7521187842850923E-01    2.5369388782073649E-01    7.4655878181213198E-01
Cs    6.1388741812236547E-01    3.7809940479053045E-01    8.7192466202450969E-01
Pb    5.0298423206602039E-01    2.5733230813150315E-01    7.5298041270703309E-01
Br    4.9564074704633820E-01    2.5231313398391414E-01    8.8266918193656441E-01
Br    4.7945081512415388E-01    3.7292424327614426E-01    7.7764691642732808E-01
Br    6.1669221307318689E-01    2.8866620868335913E-01    7.3801691240941303E-01
Cs    8.8002262582971080E-01    3.8511776721919422E-01    8.9384806568670672E-01
Pb    7.4255186417675900E-01    2.5494427011623727E-01    7.4925175232884966E-01
Br    7.5930262364156531E-01    2.6375847883052345E-01    8.7821557434242525E-01
Br    7.4042517903105831E-01    3.8480441181499264E-01    7.4285401908961712E-01
Br    8.7389800269707174E-01    2.5513024989354127E-01    7.6078996147359368E-01
Cs    1.1820361337268935E-01    6.2750900560559952E-01    8.9010928142493007E-01
Pb   -9.2252099335562460E-03    5.1036164941721318E-01    7.5872638793986302E-01
Br    1.3495209518465452E-02    5.1884229114778779E-01    8.8029897381673361E-01
Br   -9.7617481618286119E-03    6.2184111168857470E-01    7.2716169248192453E-01
Br    1.2546847851669787E-01    5.2399287775090919E-01    7.6588978334045255E-01
Cs    3.6739562500159967E-01    6.1156400903989661E-01    8.7529434506133919E-01
Pb    2.5180900532284789E-01    5.1161416762638656E-01    7.5740723217056194E-01
Br    2.4433671534226437E-01    5.2698059460984648E-01    8.8904349352207879E-01
Br    2.7431416822382398E-01    6.2897399146166821E-01    7.1908478728340408E-01
Br    3.6772680074617325E-01    4.8341498530163218E-01    7.7847427707245320E-01
Cs    6.3521592100777091E-01    6.2964189839751350E-01    8.6665170300381944E-01
Pb    4.8397068530431486E-01    5.0048046572502380E-01    7.4987750690934940E-01
Br    5.2941978554745606E-01    5.1976158985520082E-01    8.7413891753685280E-01
Br    4.8950039844165782E-01    6.3195762893617990E-01    7.5316935812034469E-01
Br    6.2008580272348401E-01    4.9896116999099183E-01    7.1063051377561237E-01
Cs    8.6939816545747850E-01    6.1447410294107130E-01    8.8199751644045055E-01
Pb    7.4611694704192966E-01    5.0202357331057845E-01    7.3607413766162411E-01
Br    7.3133355107552134E-01    4.7621878698535736E-01    8.6879564121821184E-01
Br    7.4217033660976528E-01    6.1775156878606030E-01    7.7465638752405785E-01
Br    8.6924646539747863E-01    4.8720985315909265E-01    7.7949844115234224E-01
Cs    1.3077502499943272E-01    8.7540609495794208E-01    8.6214119405037692E-01
Pb   -7.4557194694648702E-03    7.5244793349891781E-01    7.3713485590609384E-01
Br   -8.8111376056616893E-03    7.2405992831914645E-01    8.5598034725963645E-01
Br   -2.8510958314110695E-02    8.8112570757987796E-01    7.4882597682355823E-01
Br    1.2211705874028152E-01    7.6990925227282758E-01    7.5801686379697575E-01