 # Version information for this restart file 
 # current date 2021-09-13 10:36:42.446
 # current working dir /projectsp/f_rcr78_1/MW/Hybrid_Perovskite/CsSiBr3/4x4/500K/WC
 # Program compiled at                              Fri Sep 13 14:50:45 EDT 2019
 # Program compiled on                             slepner083.amarel.rutgers.edu
 # Program compiled for                                                    local
 # Source code revision number                                       git:e35496b
 &GLOBAL
   PRINT_LEVEL  LOW
   PROJECT_NAME CSB_WC
   RUN_TYPE  MD
   WALLTIME 47:58:00
 &END GLOBAL
 &MOTION
   &MD
     ENSEMBLE  NVT
     STEPS  5000
     TIMESTEP     9.9999999999999989E-01
     STEP_START_VAL  5524
     TIME_START_VAL     5.5239999999994961E+03
     ECONS_START_VAL    -4.1271290342870643E+03
     TEMPERATURE     5.0000000000000000E+02
     COMVEL_TOL     1.0000000000000000E-08
     &THERMOSTAT
       TYPE  CSVR
       &CSVR
         TIMECON     9.9999999999999986E+01
         &THERMOSTAT_ENERGY
              -8.3482492835784528E-01
         &END THERMOSTAT_ENERGY
         &RNG_INIT
Wiener process for Thermostat # 1        1 F T F  -4.8573410294334929E-01        3195383545.0        1793823692.0        1623193832.0          91807335.0         265803915.0        3992339159.0             12345.0             12345.0             12345.0             12345.0             12345.0             12345.0             12345.0             12345.0             12345.0             12345.0             12345.0             12345.0
         &END RNG_INIT
       &END CSVR
     &END THERMOSTAT
     &AVERAGES  T
       &RESTART_AVERAGES
         ITIMES_START  1
         AVECPU     2.4181923869001380E+02
         AVEHUGONIOT     0.0000000000000000E+00
         AVETEMP_BARO     0.0000000000000000E+00
         AVEPOT    -4.1271231606471747E+03
         AVEKIN     7.5241956525681575E-01
         AVETEMP     4.9654132349897043E+02
         AVEKIN_QM     0.0000000000000000E+00
         AVETEMP_QM     0.0000000000000000E+00
         AVEVOL     7.0919701531041777E+04
         AVECELL_A     4.1392561214727309E+01
         AVECELL_B     4.1392561214727309E+01
         AVECELL_C     4.1392561214727309E+01
         AVEALPHA     9.0000000000000000E+01
         AVEBETA     9.0000000000000000E+01
         AVEGAMMA     9.0000000000000000E+01
         AVE_ECONS     3.3371771445079679E-01
         AVE_PRESS     0.0000000000000000E+00
         AVE_PXX     0.0000000000000000E+00
       &END RESTART_AVERAGES
     &END AVERAGES
   &END MD
   &PRINT
     &TRAJECTORY  SILENT
       &EACH
         MD  1
       &END EACH
     &END TRAJECTORY
     &VELOCITIES  SILENT
       &EACH
         MD  1
       &END EACH
     &END VELOCITIES
     &FORCES  SILENT
       &EACH
         MD  1
       &END EACH
     &END FORCES
     &STRESS  SILENT
       &EACH
         MD  1
       &END EACH
     &END STRESS
     &RESTART  SILENT
       BACKUP_COPIES  3
       &EACH
         MD  1
       &END EACH
     &END RESTART
     &RESTART_HISTORY  SILENT
       &EACH
         MD  5
       &END EACH
     &END RESTART_HISTORY
   &END PRINT
 &END MOTION
 &FORCE_EVAL
   METHOD  QS
   &DFT
     BASIS_SET_FILE_NAME BASIS_MOLOPT
     POTENTIAL_FILE_NAME GTH_POTENTIALS
     MULTIPLICITY  1
     CHARGE  0
     &SCF
       MAX_SCF  30
       EPS_SCF     1.0000000000000001E-05
       SCF_GUESS  ATOMIC
       &OT  T
         MINIMIZER  DIIS
         PRECONDITIONER  FULL_SINGLE_INVERSE
       &END OT
       &OUTER_SCF  T
         EPS_SCF     1.0000000000000001E-05
         MAX_SCF  10
       &END OUTER_SCF
       &PRINT
         &RESTART  OFF
         &END RESTART
       &END PRINT
     &END SCF
     &QS
       EPS_DEFAULT     1.0000000000000000E-10
       EXTRAPOLATION  ASPC
       METHOD  GPW
     &END QS
     &MGRID
       NGRIDS  4
       CUTOFF     4.0000000000000000E+02
       REL_CUTOFF     9.0000000000000000E+01
     &END MGRID
     &XC
       DENSITY_CUTOFF     1.0000000000000000E-10
       GRADIENT_CUTOFF     1.0000000000000000E-10
       TAU_CUTOFF     1.0000000000000000E-10
       &XC_FUNCTIONAL  NO_SHORTCUT
         &PBE  T
         &END PBE
       &END XC_FUNCTIONAL
     &END XC
     &POISSON
       PERIODIC  XYZ
     &END POISSON
     &LOCALIZE  T
       USE_HISTORY  T
       EPS_LOCALIZATION     1.0000000000000001E-05
       METHOD  JACOBI
       &PRINT
         &WANNIER_CENTERS  SILENT
           IONS+CENTERS  T
         &END WANNIER_CENTERS
         &WANNIER_SPREADS  SILENT
         &END WANNIER_SPREADS
       &END PRINT
     &END LOCALIZE
     &REAL_TIME_PROPAGATION
       INITIAL_WFN  SCF_WFN
     &END REAL_TIME_PROPAGATION
     &PRINT
       &MO_CUBES  SILENT
         WRITE_CUBE  F
         NLUMO  4
         NHOMO  4
         &EACH
           MD  10
         &END EACH
       &END MO_CUBES
       &E_DENSITY_CUBE  OFF
       &END E_DENSITY_CUBE
     &END PRINT
   &END DFT
   &SUBSYS
     &CELL
       A     2.1904000000000000E+01    0.0000000000000000E+00    0.0000000000000000E+00
       B     0.0000000000000000E+00    2.1904000000000000E+01    0.0000000000000000E+00
       C     0.0000000000000000E+00    0.0000000000000000E+00    2.1904000000000000E+01
       MULTIPLE_UNIT_CELL  1 1 1
     &END CELL
     &COORD
Cs   -8.1182695628825748E-03   -1.6044688986158070E-02    8.1066075596328106E-03
Si    1.1992914649023977E-01    1.2178554177532980E-01    1.2606123616670045E-01
Br    1.0906598544480556E-02    1.3339453757323008E-01    1.4003083223687604E-01
Br    1.0998549936982462E-01    9.7929929143674002E-02    9.3329507636486717E-03
Br    1.3307694185469809E-01    1.3741523167468885E-02    1.4799718376940582E-01
Cs    2.4207702600579473E-01    6.6940696151351637E-03    2.3017931497042927E-03
Si    3.5645907961350909E-01    1.4459171668468618E-01    1.3002430738239401E-01
Br    2.4799250647020959E-01    1.4724812934424331E-01    1.0632120242560204E-01
Br    3.8998866113861175E-01    1.1620300226964461E-01   -3.4789454290551471E-03
Br    3.7496053134108609E-01    3.4736813176721336E-03    1.1777095131203379E-01
Cs    5.1485465994601931E-01    1.2508301552965208E-02    1.4335848724790119E-02
Si    6.2542086567402710E-01    1.2886722294366926E-01    1.3336994471715621E-01
Br    5.0955936017384540E-01    1.0767180449936399E-01    1.3475512267990519E-01
Br    6.3719417654945976E-01    1.1029933341974880E-01    1.4952935647950364E-02
Br    6.2369366798078463E-01   -2.3964894407072076E-03    1.3483973624871670E-01
Cs    7.5247296574810774E-01   -4.9547064241838089E-04   -8.2904250516685103E-03
Si    8.6651253405563622E-01    1.3746741662674927E-01    1.3679856873341864E-01
Br    7.5116962458894587E-01    1.2640806405731742E-01    1.5006754876190509E-01
Br    8.7799110769307709E-01    1.4313954270106033E-01    9.6998618533614394E-03
Br    8.6100039930161976E-01    2.5614753066789805E-03    1.3098452115080556E-01
Cs   -1.1459184232046891E-03    2.4904181569159156E-01    3.1617310378981981E-03
Si    1.1764008036501389E-01    3.8133423648568798E-01    1.0580786204472413E-01
Br    4.3111572137635870E-03    3.7929159075585905E-01    1.1567967756265077E-01
Br    1.3431559184042186E-01    4.0152738915106212E-01   -3.7540824833162500E-03
Br    1.2361310106020296E-01    2.6303751461657066E-01    9.2167892222503642E-02
Cs    2.5530529614569586E-01    2.9437200367036298E-01   -4.8649720108767920E-03
Si    3.5626089034921510E-01    3.8418956424449774E-01    1.3774489207238608E-01
Br    2.5174043376351590E-01    3.7929618322001546E-01    1.4027559101082138E-01
Br    3.8283106444431930E-01    3.8865784997164765E-01   -1.4904484966261062E-02
Br    3.8127472731609224E-01    2.5268343721029946E-01    1.1964296871943741E-01
Cs    5.2501599823741341E-01    2.4593310497746240E-01    3.4870573656659472E-03
Si    6.1172087226213023E-01    3.8095997125740255E-01    1.3101874692931476E-01
Br    5.0100080978156969E-01    3.7337711414264230E-01    1.3443844559032403E-01
Br    6.2983031047545746E-01    3.7301121400770570E-01   -4.6140240444950565E-03
Br    6.1535953481454331E-01    2.5050021482027024E-01    1.3777995668272447E-01
Cs    7.4375658067963524E-01    2.5366283585338872E-01    7.7955522945124915E-03
Si    8.6442496730135998E-01    3.7604660297732589E-01    1.2188406438195187E-01
Br    7.4588466853388391E-01    3.6490695593236372E-01    1.3523468747468398E-01
Br    8.6956967953164066E-01    3.6275858012818879E-01    1.0093231253027296E-02
Br    8.7898759208879962E-01    2.4781588014412817E-01    1.3027109728078121E-01
Cs   -1.0096421161343403E-02    5.0692447836897991E-01    2.9561629961049594E-03
Si    1.4177085587511506E-01    6.2888871373925259E-01    1.2097885155889955E-01
Br   -3.8479042899038653E-03    6.1101744066534092E-01    1.3254298353501889E-01
Br    1.3482902252496917E-01    6.2355023232933326E-01    4.8512586119376956E-03
Br    1.4014381663471834E-01    5.1423713647025171E-01    1.3663558451389099E-01
Cs    2.4577985879011122E-01    5.1432985887646743E-01    2.4954706294539174E-03
Si    3.7869861753346801E-01    6.3567400301550747E-01    1.2013055663443445E-01
Br    2.5295857492574325E-01    6.2544548643547782E-01    1.1933339086053223E-01
Br    3.8466653535711770E-01    6.1048793277288049E-01    1.2680885357276432E-02
Br    3.6210879902668985E-01    5.0305559180144954E-01    1.3923127882575922E-01
Cs    5.0301376388476438E-01    5.0149037384804496E-01   -2.8746978276406399E-03
Si    6.2796234699970910E-01    6.3430746058863885E-01    1.2811199118475958E-01
Br    4.9869163818937284E-01    6.3195319340748901E-01    1.1858980567831084E-01
Br    6.3075001607183689E-01    6.1700264809176875E-01   -1.5450379783716452E-03
Br    6.1224199258219181E-01    4.9708205642554260E-01    1.2397801898361435E-01
Cs    7.5737696424048961E-01    4.9192047334798344E-01   -1.6500666567615166E-03
Si    8.8259602720621555E-01    6.4183781246828098E-01    1.3358924537933736E-01
Br    7.4556812864814848E-01    6.2739135477111574E-01    1.2926123342582649E-01
Br    8.7399254440650287E-01    6.2628340112907310E-01   -1.1989529913796693E-02
Br    8.6499943075687813E-01    4.8249881644843828E-01    1.0860922492992320E-01
Cs    2.4571979765252551E-03    7.3058302230753192E-01   -2.0971563195076995E-02
Si    1.2653657904080243E-01    8.7151251798340656E-01    1.0799456034312706E-01
Br    1.2560560954728774E-02    8.8281884029557423E-01    1.2362043257148429E-01
Br    1.2926340184492019E-01    8.5980928792067002E-01   -1.0739130816918734E-02
Br    1.2146988922681506E-01    7.5708058376007481E-01    1.2479558813469495E-01
Cs    2.5256921295354701E-01    7.4394165247468214E-01   -1.2807205642926249E-02
Si    3.7114359198183505E-01    8.8724310036155563E-01    1.1301920009793719E-01
Br    2.5774295008771064E-01    8.6949136559728779E-01    9.4685161755222319E-02
Br    3.7900137857611466E-01    8.7755822446801579E-01   -1.4094560898994021E-03
Br    3.7383022461259091E-01    7.5221860617024150E-01    1.1063887309701248E-01
Cs    4.9247721933178967E-01    7.6015610738644701E-01   -5.6497402940594603E-03
Si    6.1223218920956346E-01    8.9015786865902213E-01    1.2610317935834725E-01
Br    5.0454989525549976E-01    8.7159338105712270E-01    1.3586902790426247E-01
Br    6.3476891995895834E-01    8.8456146836408622E-01   -1.6729684506084672E-02
Br    6.3990817637573894E-01    7.3808766684147353E-01    1.1381696882089819E-01
Cs    7.5253192141213887E-01    7.5790773203430883E-01   -1.6474278692903587E-02
Si    8.7159016535259171E-01    8.8410257192296138E-01    1.4432302921556811E-01
Br    7.5449779854500243E-01    8.7378641280855140E-01    1.1700794646406928E-01
Br    8.8537160461615105E-01    8.6756183972703882E-01   -1.6502863358487854E-02
Br    8.8853163274814084E-01    7.5718501933380500E-01    1.2702015543915948E-01
Cs   -5.7685809931719081E-03    2.8461690705228236E-03    2.5517636238902863E-01
Si    1.1968968663593857E-01    1.2102840966528873E-01    3.7053151842768206E-01
Br    5.0130387112843327E-03    1.1131032264611695E-01    3.6095254211340927E-01
Br    1.3740345658891931E-01    1.2651987610856680E-01    2.6154339671021642E-01
Br    1.2924536340568793E-01    1.4161588204845735E-02    3.7487956156192881E-01
Cs    2.5727720136600607E-01    3.4568292107606553E-03    2.6777560246067134E-01
Si    3.6050332091601783E-01    1.2836916412946855E-01    3.8314901753075814E-01
Br    2.4787846495584334E-01    1.2709968702485280E-01    3.9431714694249148E-01
Br    3.5823856750949501E-01    1.2489882519930799E-01    2.4327071116018575E-01
Br    3.5963686598398731E-01   -5.6720136833834220E-03    3.8985951608008879E-01
Cs    4.7758049881614123E-01    1.5950185283855542E-02    2.5946418556070749E-01
Si    6.2615580852265473E-01    1.0610083098432145E-01    3.8547324339540540E-01
Br    5.1092555535586592E-01    1.1300516739862920E-01    3.8609886402565780E-01
Br    6.4128821385492341E-01    1.0697764617918872E-01    2.7387455391550602E-01
Br    6.0976431663820574E-01   -6.0793535408111606E-03    4.0667710828297632E-01
Cs    7.4601458013297606E-01   -1.3251259734131760E-02    2.4785157443946915E-01
Si    8.6963236362506446E-01    1.3728416244248209E-01    3.8167819628816652E-01
Br    7.5382884895817537E-01    1.2515346570895078E-01    3.8615698368551993E-01
Br    8.7813776804095001E-01    1.2264092371520509E-01    2.5189903521964568E-01
Br    8.8144220066325596E-01   -2.4220356447572540E-03    3.8850393235716091E-01
Cs   -3.8626373827096625E-04    2.4335980641738078E-01    2.5769748926901614E-01
Si    1.2547111649712911E-01    3.7371310175290084E-01    3.6462400521740296E-01
Br   -1.3397457274769630E-02    3.6445911995312813E-01    3.7761495485530955E-01
Br    1.1528383464996363E-01    3.7640413440684800E-01    2.4377564690745096E-01
Br    1.1519351086245871E-01    2.6019269866438960E-01    3.7644322157620319E-01
Cs    2.4753707503781033E-01    2.6035799281649813E-01    2.5477280715854544E-01
Si    3.8460738218811930E-01    3.7610042213668626E-01    3.8542424344617326E-01
Br    2.4294634657080560E-01    3.7615315288462153E-01    3.6996082687154086E-01
Br    3.7422282524619871E-01    3.6442585000789368E-01    2.4288182960918542E-01
Br    3.7497344678380795E-01    2.4121209614391181E-01    3.7092497079402148E-01
Cs    4.8938866599354819E-01    2.4599875085944090E-01    2.4212300862668401E-01
Si    6.3607318373382804E-01    3.8181822679498895E-01    3.7999455625911938E-01
Br    4.9418148059129569E-01    3.5091211096090774E-01    3.9869485126967669E-01
Br    6.1728430932635270E-01    3.7599611320496268E-01    2.3765548300797251E-01
Br    6.2982264876641092E-01    2.3577499551642972E-01    3.6866293879892065E-01
Cs    7.4164011868072088E-01    2.3719310440191382E-01    2.5660731997924735E-01
Si    8.7425397739560518E-01    3.8497771992760971E-01    3.6311631558090757E-01
Br    7.4752124988191415E-01    3.8551508565526910E-01    3.6226340441071525E-01
Br    8.6912262595613154E-01    3.8801276421578984E-01    2.4940973227513272E-01
Br    8.7351685844646354E-01    2.5209871972282444E-01    3.6711895987429971E-01
Cs   -6.4131006568636630E-03    5.0624841177429236E-01    2.6670193788209007E-01
Si    1.2927566903225826E-01    6.2612310561053086E-01    3.8607567089555778E-01
Br    1.4193638223127244E-02    6.2991990975715428E-01    3.7674759312750949E-01
Br    1.3792857556445787E-01    6.3633114172196981E-01    2.6632845871442851E-01
Br    1.2719472226853781E-01    5.1131777791876687E-01    3.8421310134119629E-01
Cs    2.5257178557774612E-01    5.0113325778474505E-01    2.6233641330485297E-01
Si    3.7080959659887103E-01    6.2786559897634675E-01    3.7152559846071209E-01
Br    2.5405048184588347E-01    6.1332150228258675E-01    3.8549962970767609E-01
Br    3.8263636673719104E-01    6.3676682211655389E-01    2.5685493947098792E-01
Br    3.9147224883466131E-01    4.8771287847759470E-01    3.7379730920078030E-01
Cs    5.0093170945540477E-01    4.8520531381746407E-01    2.5399705231577391E-01
Si    6.2240213219329332E-01    6.3022991616159352E-01    3.6615169074099924E-01
Br    5.0466457630063399E-01    6.2155939385767445E-01    3.8830938826593953E-01
Br    6.0068437918700635E-01    6.3807582869631174E-01    2.3266795207207031E-01
Br    6.2823338001291362E-01    5.0428527317610006E-01    3.4928345995210702E-01
Cs    7.4779902909037177E-01    5.0623200914619937E-01    2.4242772848696784E-01
Si    8.7760123892899411E-01    6.2930180745890796E-01    3.7641182073017831E-01
Br    7.6024581374007816E-01    6.4245346016767324E-01    3.6109063196362617E-01
Br    8.7902540765509063E-01    6.3251698393288447E-01    2.3798960863086982E-01
Br    8.8394468674476789E-01    4.9862286738697897E-01    3.6067877487815586E-01
Cs    1.2391302604897536E-02    7.3907660459023095E-01    2.5739546318653611E-01
Si    1.4112840713569355E-01    8.7311498148604638E-01    3.7019775535859534E-01
Br   -7.6223218245254961E-03    8.8167255541699685E-01    3.8700595649272990E-01
Br    1.3825741921105461E-01    8.8125167122190018E-01    2.5689923219333821E-01
Br    1.1297515062339394E-01    7.6009239776593607E-01    3.8152952931194090E-01
Cs    2.4776352242998673E-01    7.5524664187442314E-01    2.4387134605407293E-01
Si    3.7079953002936583E-01    8.7347987317687426E-01    3.7857424136372081E-01
Br    2.5119736756824584E-01    8.5175370935009675E-01    3.9097815168060268E-01
Br    3.6553284942883518E-01    8.6569476882960317E-01    2.6026537296041552E-01
Br    3.7875956883435907E-01    7.4633131296121791E-01    3.7851028559195515E-01
Cs    4.8966452618247042E-01    7.5991787626912011E-01    2.4821031569388766E-01
Si    6.2450330808527044E-01    8.6781122669516664E-01    3.7822548453637095E-01
Br    4.9383269326740464E-01    8.7651427050525388E-01    3.9442540297250522E-01
Br    6.2953127698716960E-01    8.6255833072093202E-01    2.4106058996867058E-01
Br    6.2716110721111962E-01    7.4466253449235675E-01    3.6357818938964298E-01
Cs    7.5781630733580396E-01    7.5629576093320439E-01    2.3762373059845282E-01
Si    8.7301178122986423E-01    8.8741898071364733E-01    3.8002748089515931E-01
Br    7.3869206497115936E-01    8.8745117451796107E-01    3.8720034602612280E-01
Br    8.6741304421135412E-01    8.7110329528548547E-01    2.5010411622353496E-01
Br    8.8483554119552343E-01    7.4451966729327934E-01    3.7395368415058072E-01
Cs    1.1077314501019843E-02   -2.2438669949831729E-02    5.1532798531106638E-01
Si    1.1003464050528451E-01    1.3117319677687156E-01    6.2254023786082846E-01
Br   -8.5999716548415470E-03    1.1964684277710634E-01    6.3538269932955771E-01
Br    8.8766086181956902E-02    1.2860435881178089E-01    5.1191686528163471E-01
Br    1.2555241898545394E-01    2.0562065213975286E-02    6.2262446687272377E-01
Cs    2.6501083164990358E-01    1.3393832497398787E-03    5.1696342054872724E-01
Si    3.6219027683195798E-01    1.4306074147821918E-01    6.3706097117651372E-01
Br    2.4938564522808576E-01    1.2857760841590826E-01    6.1145393953205529E-01
Br    3.7749758430102437E-01    1.3373306001549798E-01    4.9804694476976402E-01
Br    3.6822795230619854E-01    1.8550637433253248E-03    6.2423654371032367E-01
Cs    4.7696807425275245E-01   -1.0240194891249499E-02    5.0453672991085696E-01
Si    6.4049941076356565E-01    1.2657128588453856E-01    6.1842530587129785E-01
Br    5.0613293378079149E-01    1.3121338076603248E-01    6.3460664706937642E-01
Br    6.3877002896201196E-01    1.2292427694379424E-01    5.1002655235066863E-01
Br    5.9534677293844518E-01   -4.1163002040626694E-03    6.1235907518309740E-01
Cs    7.5805799997714718E-01    5.1914319246678395E-03    4.9856427056074198E-01
Si    8.6737485283160287E-01    1.3239443296538145E-01    6.2641423344197111E-01
Br    7.5146085075582336E-01    1.1522154660457916E-01    6.3820907468838695E-01
Br    8.7905744538064434E-01    1.1907877158822792E-01    5.0844559226880548E-01
Br    8.7549837950240783E-01   -2.4967848643439789E-03    6.2265398320246412E-01
Cs   -1.4316475040624006E-02    2.5184929647714394E-01    4.9411996914368606E-01
Si    1.1137241279813713E-01    3.7223455259263305E-01    6.1364943382104475E-01
Br    7.9989648616266631E-03    3.8939158644838451E-01    6.1308080858925740E-01
Br    1.2571893734070000E-01    3.7639872008482494E-01    4.9806172495802942E-01
Br    1.1057838249193039E-01    2.6027587920529333E-01    6.2396659385599762E-01
Cs    2.4426897999174271E-01    2.6437333059939883E-01    4.9400944462531104E-01
Si    3.6186021359760090E-01    3.7835463832171945E-01    6.2700779256642281E-01
Br    2.5490749508252297E-01    3.7413431444891188E-01    6.3107216348193107E-01
Br    3.6348805448081839E-01    3.7140217042951323E-01    4.9216768313979087E-01
Br    3.7086213365340248E-01    2.5310242560164842E-01    6.2400064387142229E-01
Cs    5.0132056975170003E-01    2.3551718050985021E-01    5.0224303949203764E-01
Si    6.0968351886180694E-01    3.7456885855939703E-01    6.2619514831660339E-01
Br    5.0197732507314941E-01    3.7599085843458308E-01    6.3595106138440294E-01
Br    6.3711270722692526E-01    3.7459774935522511E-01    4.8851428380088457E-01
Br    6.3918342123932503E-01    2.4282505568244903E-01    6.2603764197980183E-01
Cs    7.5392228861789834E-01    2.4406227481696732E-01    5.0076825111826262E-01
Si    8.6466857691500076E-01    3.7688640829155129E-01    6.1761205686045928E-01
Br    7.5390065472443557E-01    3.6868962854793430E-01    6.1436813686372382E-01
Br    8.6618225855836584E-01    3.8917579643225131E-01    5.0716343014839516E-01
Br    8.7541379092564353E-01    2.5008792811268432E-01    6.2588245841871160E-01
Cs   -4.8721242564580989E-03    4.8504658722705124E-01    4.8203146291994514E-01
Si    1.3196156605093920E-01    6.0772452162194512E-01    6.1843299304729982E-01
Br    1.8910114435013042E-02    5.9309623493735908E-01    6.2487053465816200E-01
Br    1.2719610830699171E-01    6.2097551920571703E-01    5.0817484637753840E-01
Br    1.4337773901249243E-01    4.9328641744880164E-01    6.1870570957507198E-01
Cs    2.5855329981462361E-01    5.1038358235208681E-01    5.0760833693843110E-01
Si    3.6357523505728867E-01    6.3835376601956451E-01    6.2535647513519044E-01
Br    2.5883920368410768E-01    6.3742128091349537E-01    6.2729601974279636E-01
Br    3.7023184750973187E-01    6.3997007868368450E-01    5.0914856683863141E-01
Br    3.7576038963464209E-01    5.0177029021867525E-01    6.2298364587906785E-01
Cs    5.0304347468213761E-01    5.0986607964267228E-01    4.9410615981437900E-01
Si    6.3484043548860059E-01    6.4552595106197097E-01    6.2346154531032172E-01
Br    5.2172347285011567E-01    6.3820657526163471E-01    6.1934551705059093E-01
Br    6.2277190130472337E-01    6.2489902865405023E-01    4.7876495163191635E-01
Br    6.2086050433754048E-01    4.8225930033192060E-01    6.2432448849585997E-01
Cs    7.5232470930406381E-01    5.1273818909054425E-01    4.8482982145205183E-01
Si    8.7540211535588630E-01    6.2310575848837890E-01    6.2609062463245613E-01
Br    7.6714927770767616E-01    6.3022452773237536E-01    6.0481598018328431E-01
Br    8.8502894373334717E-01    6.1389121926778734E-01    4.8338310418428682E-01
Br    8.5740039082163699E-01    4.9379922384718444E-01    6.1626066386929523E-01
Cs   -2.5391485946928203E-03    7.3206593497896677E-01    5.1613189383349656E-01
Si    1.1657950800895804E-01    8.7143970451169728E-01    6.1504920916120598E-01
Br   -6.8935339575545344E-04    8.6585593481991718E-01    6.3825284397888538E-01
Br    1.2317116097885886E-01    8.6717594139512499E-01    5.0124297202593759E-01
Br    1.2250400010493294E-01    7.6051107742409485E-01    6.2178299184870378E-01
Cs    2.5531997388758437E-01    7.5316232787151016E-01    5.0599893045320465E-01
Si    3.6429604672908694E-01    8.8308985067506207E-01    6.2743477894452371E-01
Br    2.5702087009159241E-01    8.7316105598568639E-01    6.2297843814488096E-01
Br    3.6528503931666362E-01    8.6736877240021626E-01    4.9574564040106961E-01
Br    3.8642439858956562E-01    7.4641789552094384E-01    6.3110561136000254E-01
Cs    5.0359115974278390E-01    7.5829816980403986E-01    5.1107238595754578E-01
Si    6.0707188799324840E-01    8.8643377784104382E-01    6.2641994625880970E-01
Br    4.9403029286033401E-01    8.6956205956604071E-01    6.2535839092854040E-01
Br    6.2283876432823382E-01    8.5334317349471467E-01    4.8713081065564323E-01
Br    6.3955030780494260E-01    7.5870657775403016E-01    6.4249273131021067E-01
Cs    7.7184851386894504E-01    7.5218139929555461E-01    4.9613063997913681E-01
Si    8.6069862784128492E-01    8.8797766536805811E-01    6.2431944683446139E-01
Br    7.4860400055291210E-01    8.7812786541550414E-01    6.2428126897344516E-01
Br    8.7520171453708706E-01    8.7738849112549955E-01    4.9486696588804635E-01
Br    8.8345371817915153E-01    7.4070438618119094E-01    6.3033435640277646E-01
Cs    5.4050485856182500E-03   -1.2454985899324001E-02    7.5811646730956139E-01
Si    1.1289480265721522E-01    1.4812292493054224E-01    8.7582279592995027E-01
Br   -1.4323029788518510E-02    1.3337097402623740E-01    8.7027792665047543E-01
Br    1.1862414892484394E-01    1.3225328598634575E-01    7.6349932084823668E-01
Br    1.4258466788484370E-01   -4.8311374737404758E-03    8.7869564872753414E-01
Cs    2.3700672226590189E-01    2.0642834581077164E-02    7.4917233613992429E-01
Si    3.6184482451493682E-01    1.1620097564176866E-01    8.8936772716994372E-01
Br    2.5089821830774756E-01    1.2164534410440361E-01    8.9572796793865783E-01
Br    3.6477961044660140E-01    1.4054792529316779E-01    7.4788986317798145E-01
Br    3.6018641377481414E-01    5.5979155613879719E-03    8.7406233363389874E-01
Cs    5.0057835661520678E-01    2.2693727960425673E-02    7.5763293880756732E-01
Si    6.3186658972797238E-01    1.2872709555741896E-01    8.7857841197322983E-01
Br    5.0788047052647756E-01    1.0937973770112595E-01    8.8466731490431760E-01
Br    6.3984002582450905E-01    1.1332019265657503E-01    7.5506860773123796E-01
Br    6.2647278018406372E-01   -4.7210376750208465E-03    8.8675900764055360E-01
Cs    7.4916392075264548E-01   -1.4005596049530339E-02    7.6302170105996203E-01
Si    8.7922123934309171E-01    1.2576340051767040E-01    8.9950908642686500E-01
Br    7.5785169782909623E-01    1.3145349365054249E-01    8.8527996845697043E-01
Br    8.6873165543331299E-01    1.2620886208358795E-01    7.4656777328241086E-01
Br    8.7677966549576414E-01    9.9237581981341302E-03    8.7942701855340422E-01
Cs   -1.4187934524660822E-03    2.5180773118268135E-01    7.4915996378369210E-01
Si    1.2271566271600727E-01    3.9303987667026330E-01    8.6134498712591467E-01
Br    1.0361945143021438E-02    3.6640939770088871E-01    8.7952238474543765E-01
Br    1.1772803219941469E-01    3.8181570980566654E-01    7.5082748819900491E-01
Br    1.3093754369930422E-01    2.5623779180330503E-01    8.7610462538924117E-01
Cs    2.4280892399365933E-01    2.4391555731789177E-01    7.5729729887405184E-01
Si    3.7495801933653655E-01    3.6117608083529901E-01    8.6521856313710421E-01
Br    2.5658980341844179E-01    3.7603739772406236E-01    8.5744809732536931E-01
Br    3.7023118021896301E-01    3.5989972843019702E-01    7.3251329514917296E-01
Br    3.7773170063687272E-01    2.5057074709419008E-01    8.8722591824044894E-01
Cs    5.0162948892570935E-01    2.3565189777866044E-01    7.6382724127754276E-01
Si    6.1992140107352167E-01    3.8779831130782405E-01    8.7611931658104958E-01
Br    5.0940266174761351E-01    3.6849327186659386E-01    8.5771788703412633E-01
Br    6.3173444808939061E-01    3.7130375142888056E-01    7.3792221613500864E-01
Br    6.2135155610959369E-01    2.3785358120144548E-01    8.7454475670335474E-01
Cs    7.4744642145167695E-01    2.5437335325280619E-01    7.4708402235655258E-01
Si    8.7191806453520548E-01    3.7731869626917264E-01    8.6103706725290330E-01
Br    7.5731020876367483E-01    3.9344216020909584E-01    8.6248092461081827E-01
Br    8.7002021812352315E-01    3.8685779397095643E-01    7.4662256703940766E-01
Br    8.7269750512524435E-01    2.6055919553287737E-01    8.6580325745246534E-01
Cs   -1.6584700231876186E-02    4.9401913483434928E-01    7.5835092826012263E-01
Si    1.2706161537289767E-01    6.2010328277474680E-01    8.7436057960894731E-01
Br   -8.3135835120571374E-03    6.0805045011747383E-01    8.7284574604949394E-01
Br    1.1579063697816828E-01    6.1865349359959654E-01    7.5732495552601742E-01
Br    1.3179934726090745E-01    5.0106248817220855E-01    8.7456534821594822E-01
Cs    2.6611306752541031E-01    4.9766182921909757E-01    7.5830621696158085E-01
Si    3.8091329947271257E-01    6.2300017785252415E-01    8.7272121475094444E-01
Br    2.5948677791132457E-01    6.1354376375503061E-01    8.7540041766572529E-01
Br    3.6808026262684462E-01    6.2975102657450122E-01    7.5972019796871892E-01
Br    3.8290052725122936E-01    5.1006076553550728E-01    8.7860250714058008E-01
Cs    5.0276270214766516E-01    5.1651551422651365E-01    7.4588884122762711E-01
Si    6.2560819674527079E-01    6.2838917579299125E-01    8.8428781457774974E-01
Br    5.0270734171390086E-01    6.2610247311188449E-01    8.9109877064586029E-01
Br    6.2817455767742669E-01    6.2534894100362726E-01    7.2808294665558637E-01
Br    6.2452655644486710E-01    4.9280872167468670E-01    8.6982424946205783E-01
Cs    7.4701128464700073E-01    5.0821708187743619E-01    7.4682932060042206E-01
Si    8.6310062626658113E-01    6.2451268954618822E-01    8.8287772553708688E-01
Br    7.4235233239269127E-01    6.3050332577972035E-01    8.7347112842508734E-01
Br    8.5746446594161729E-01    6.3441224372653782E-01    7.4129868531579823E-01
Br    8.5955566862133381E-01    5.1792009548286211E-01    8.7755469791346785E-01
Cs    3.8553623832869302E-03    7.4658513432941143E-01    7.4704401535396558E-01
Si    1.3138940326959184E-01    8.7108333342625766E-01    8.5943220172437107E-01
Br    1.3496200979712729E-02    8.5725854026682113E-01    8.6490444544124978E-01
Br    1.3546584111059834E-01    8.7902600216088733E-01    7.5034572441105707E-01
Br    1.3663008887506917E-01    7.2941726748539626E-01    8.7576916407620575E-01