 # Version information for this restart file 
 # current date 2021-09-13 11:01:19.810
 # current working dir /projectsp/f_rcr78_1/MW/Hybrid_Perovskite/CsSiBr3/4x4/500K/WC
 # Program compiled at                              Fri Sep 13 14:50:45 EDT 2019
 # Program compiled on                             slepner083.amarel.rutgers.edu
 # Program compiled for                                                    local
 # Source code revision number                                       git:e35496b
 &GLOBAL
   PRINT_LEVEL  LOW
   PROJECT_NAME CSB_WC
   RUN_TYPE  MD
   WALLTIME 47:58:00
 &END GLOBAL
 &MOTION
   &MD
     ENSEMBLE  NVT
     STEPS  5000
     TIMESTEP     9.9999999999999989E-01
     STEP_START_VAL  5525
     TIME_START_VAL     5.5249999999994961E+03
     ECONS_START_VAL    -4.1271290342870643E+03
     TEMPERATURE     5.0000000000000000E+02
     COMVEL_TOL     1.0000000000000000E-08
     &THERMOSTAT
       TYPE  CSVR
       &CSVR
         TIMECON     9.9999999999999986E+01
         &THERMOSTAT_ENERGY
              -8.3913772841020018E-01
         &END THERMOSTAT_ENERGY
         &RNG_INIT
Wiener process for Thermostat # 1        1 F T F   6.7163018116073070E-01        1232818249.0        3560395790.0         857045690.0        1283528566.0        3846243839.0         830591585.0             12345.0             12345.0             12345.0             12345.0             12345.0             12345.0             12345.0             12345.0             12345.0             12345.0             12345.0             12345.0
         &END RNG_INIT
       &END CSVR
     &END THERMOSTAT
     &AVERAGES  T
       &RESTART_AVERAGES
         ITIMES_START  1
         AVECPU     2.4204286566714336E+02
         AVEHUGONIOT     0.0000000000000000E+00
         AVETEMP_BARO     0.0000000000000000E+00
         AVEPOT    -4.1271231553561583E+03
         AVEKIN     7.5242874061522524E-01
         AVETEMP     4.9654737855763534E+02
         AVEKIN_QM     0.0000000000000000E+00
         AVETEMP_QM     0.0000000000000000E+00
         AVEVOL     7.0919701531041777E+04
         AVECELL_A     4.1392561214727309E+01
         AVECELL_B     4.1392561214727309E+01
         AVECELL_C     4.1392561214727309E+01
         AVEALPHA     9.0000000000000000E+01
         AVEBETA     9.0000000000000000E+01
         AVEGAMMA     9.0000000000000000E+01
         AVE_ECONS     3.3349338820684277E-01
         AVE_PRESS     0.0000000000000000E+00
         AVE_PXX     0.0000000000000000E+00
       &END RESTART_AVERAGES
     &END AVERAGES
   &END MD
   &PRINT
     &TRAJECTORY  SILENT
       &EACH
         MD  1
       &END EACH
     &END TRAJECTORY
     &VELOCITIES  SILENT
       &EACH
         MD  1
       &END EACH
     &END VELOCITIES
     &FORCES  SILENT
       &EACH
         MD  1
       &END EACH
     &END FORCES
     &STRESS  SILENT
       &EACH
         MD  1
       &END EACH
     &END STRESS
     &RESTART  SILENT
       BACKUP_COPIES  3
       &EACH
         MD  1
       &END EACH
     &END RESTART
     &RESTART_HISTORY  SILENT
       &EACH
         MD  5
       &END EACH
     &END RESTART_HISTORY
   &END PRINT
 &END MOTION
 &FORCE_EVAL
   METHOD  QS
   &DFT
     BASIS_SET_FILE_NAME BASIS_MOLOPT
     POTENTIAL_FILE_NAME GTH_POTENTIALS
     MULTIPLICITY  1
     CHARGE  0
     &SCF
       MAX_SCF  30
       EPS_SCF     1.0000000000000001E-05
       SCF_GUESS  ATOMIC
       &OT  T
         MINIMIZER  DIIS
         PRECONDITIONER  FULL_SINGLE_INVERSE
       &END OT
       &OUTER_SCF  T
         EPS_SCF     1.0000000000000001E-05
         MAX_SCF  10
       &END OUTER_SCF
       &PRINT
         &RESTART  OFF
         &END RESTART
       &END PRINT
     &END SCF
     &QS
       EPS_DEFAULT     1.0000000000000000E-10
       EXTRAPOLATION  ASPC
       METHOD  GPW
     &END QS
     &MGRID
       NGRIDS  4
       CUTOFF     4.0000000000000000E+02
       REL_CUTOFF     9.0000000000000000E+01
     &END MGRID
     &XC
       DENSITY_CUTOFF     1.0000000000000000E-10
       GRADIENT_CUTOFF     1.0000000000000000E-10
       TAU_CUTOFF     1.0000000000000000E-10
       &XC_FUNCTIONAL  NO_SHORTCUT
         &PBE  T
         &END PBE
       &END XC_FUNCTIONAL
     &END XC
     &POISSON
       PERIODIC  XYZ
     &END POISSON
     &LOCALIZE  T
       USE_HISTORY  T
       EPS_LOCALIZATION     1.0000000000000001E-05
       METHOD  JACOBI
       &PRINT
         &WANNIER_CENTERS  SILENT
           IONS+CENTERS  T
         &END WANNIER_CENTERS
         &WANNIER_SPREADS  SILENT
         &END WANNIER_SPREADS
       &END PRINT
     &END LOCALIZE
     &REAL_TIME_PROPAGATION
       INITIAL_WFN  SCF_WFN
     &END REAL_TIME_PROPAGATION
     &PRINT
       &MO_CUBES  SILENT
         WRITE_CUBE  F
         NLUMO  4
         NHOMO  4
         &EACH
           MD  10
         &END EACH
       &END MO_CUBES
       &E_DENSITY_CUBE  OFF
       &END E_DENSITY_CUBE
     &END PRINT
   &END DFT
   &SUBSYS
     &CELL
       A     2.1904000000000000E+01    0.0000000000000000E+00    0.0000000000000000E+00
       B     0.0000000000000000E+00    2.1904000000000000E+01    0.0000000000000000E+00
       C     0.0000000000000000E+00    0.0000000000000000E+00    2.1904000000000000E+01
       MULTIPLE_UNIT_CELL  1 1 1
     &END CELL
     &COORD
Cs   -8.1180149371489450E-03   -1.5941861781517824E-02    8.0723786027636531E-03
Si    1.1977622695444751E-01    1.2182598298953549E-01    1.2592207953561765E-01
Br    1.1083116866485537E-02    1.3335512405510982E-01    1.3990691280477496E-01
Br    1.0996756417391745E-01    9.8016766033382746E-02    9.1649483865992743E-03
Br    1.3315493744198295E-01    1.3888882997340781E-02    1.4810135094541088E-01
Cs    2.4212124175215247E-01    6.6888361266856308E-03    2.4062665253904215E-03
Si    3.5660765951678924E-01    1.4460356563904483E-01    1.3013150454551378E-01
Br    2.4814663776380400E-01    1.4701193519073624E-01    1.0634633993163943E-01
Br    3.9012087269008477E-01    1.1617938174441929E-01   -3.3448097708900846E-03
Br    3.7486870118969273E-01    3.4960862190308996E-03    1.1778585566156574E-01
Cs    5.1490691351934736E-01    1.2556829990145868E-02    1.4533420852906234E-02
Si    6.2543249492379704E-01    1.2924244418795985E-01    1.3332615402458622E-01
Br    5.0942603225407912E-01    1.0765819485777584E-01    1.3464117007537113E-01
Br    6.3740256952012397E-01    1.1031367478345283E-01    1.4914028274707726E-02
Br    6.2359034423983561E-01   -2.1792883413765405E-03    1.3464364720613298E-01
Cs    7.5245805784520181E-01   -5.9341458016632970E-04   -8.3638221261815981E-03
Si    8.6674765313725388E-01    1.3749691768986913E-01    1.3707649896977400E-01
Br    7.5112270363060651E-01    1.2638218481793068E-01    1.5015330434088164E-01
Br    8.7792531599357859E-01    1.4313536387302997E-01    9.6143209193550339E-03
Br    8.6107572124460474E-01    2.6753041547803338E-03    1.3112723224394546E-01
Cs   -1.0513514414795034E-03    2.4915275811577287E-01    3.1597078816722694E-03
Si    1.1760055530692065E-01    3.8132109412200271E-01    1.0577280302577748E-01
Br    4.3756460078584478E-03    3.7937257168466459E-01    1.1569750266596981E-01
Br    1.3429648645333978E-01    4.0140717586118529E-01   -3.6462475765357081E-03
Br    1.2370529525307337E-01    2.6316146784312888E-01    9.2201745814969954E-02
Cs    2.5530421607808729E-01    2.9431601485586495E-01   -4.7537572764560160E-03
Si    3.5624000184773130E-01    3.8414560498283107E-01    1.3810031402019585E-01
Br    2.5158378165048917E-01    3.7928391135288048E-01    1.4031483529884900E-01
Br    3.8290700394690380E-01    3.8868606828380270E-01   -1.4894074056606865E-02
Br    3.8130950729047708E-01    2.5258009116394115E-01    1.1969376039746260E-01
Cs    5.2507030714072656E-01    2.4584224860342785E-01    3.5724217195266771E-03
Si    6.1181234612414881E-01    3.8085018186459135E-01    1.3115431876817882E-01
Br    5.0112202943233830E-01    3.7325582836095944E-01    1.3453602087499003E-01
Br    6.2981170981259371E-01    3.7306223364637259E-01   -4.5421072045866533E-03
Br    6.1515612337218739E-01    2.5051001774012555E-01    1.3778633662887943E-01
Cs    7.4378595347533871E-01    2.5371675453353393E-01    7.7834984168934380E-03
Si    8.6400914573333576E-01    3.7620624271904402E-01    1.2185643520864438E-01
Br    7.4584953993465997E-01    3.6492318142274327E-01    1.3536978966809540E-01
Br    8.6944687089162054E-01    3.6258016506490204E-01    1.0011291283057576E-02
Br    8.7889842010959096E-01    2.4769283807817261E-01    1.3026746181859025E-01
Cs   -1.0007479598650693E-02    5.0684040785308437E-01    2.7905263622382565E-03
Si    1.4162597081406672E-01    6.2904499926827218E-01    1.2087656222194150E-01
Br   -3.7599746246372956E-03    6.1097622981795119E-01    1.3248866105223447E-01
Br    1.3473388591057059E-01    6.2351076502359226E-01    4.8662244835386914E-03
Br    1.4036662839933539E-01    5.1416244353930673E-01    1.3659559158403034E-01
Cs    2.4573673381001027E-01    5.1437406574284761E-01    2.6254566343920792E-03
Si    3.7879819259721187E-01    6.3558400787250546E-01    1.1987808092536890E-01
Br    2.5284721717869646E-01    6.2559349101686312E-01    1.1933204237230875E-01
Br    3.8470381203703369E-01    6.1043860792449045E-01    1.2638946406931802E-02
Br    3.6228729995967512E-01    5.0312702337067683E-01    1.3940801317253898E-01
Cs    5.0306405252371367E-01    5.0147769417152976E-01   -3.0374181033083793E-03
Si    6.2795031084263708E-01    6.3398846725840119E-01    1.2811173052064395E-01
Br    4.9861843476612733E-01    6.3210853863285366E-01    1.1854493315819492E-01
Br    6.3083492309116607E-01    6.1692632964745919E-01   -1.6708288001269494E-03
Br    6.1208182747480555E-01    4.9710574736165458E-01    1.2392397432052368E-01
Cs    7.5727407020167992E-01    4.9184993352504808E-01   -1.7023385879220616E-03
Si    8.8270189457947612E-01    6.4190414825634157E-01    1.3331288916046158E-01
Br    7.4556350596612542E-01    6.2732655402742354E-01    1.2927108675384832E-01
Br    8.7397132024843183E-01    6.2630510347940149E-01   -1.1955206783268663E-02
Br    8.6481634915791694E-01    4.8260990718041724E-01    1.0863122383826396E-01
Cs    2.4374578790441635E-03    7.3075166084567866E-01   -2.1034110148738815E-02
Si    1.2665537238434021E-01    8.7193518866163477E-01    1.0791022973616238E-01
Br    1.2784849750301535E-02    8.8286948842425617E-01    1.2348630524552281E-01
Br    1.2930280015122875E-01    8.5977452284566913E-01   -1.0802519726675498E-02
Br    1.2144643045687237E-01    7.5706266376150855E-01    1.2462481263220275E-01
Cs    2.5254774330495011E-01    7.4390517209428553E-01   -1.2816473286391235E-02
Si    3.7100002282667088E-01    8.8692912116656042E-01    1.1288527679948253E-01
Br    2.5775182086935089E-01    8.6928683629181558E-01    9.4704421050002346E-02
Br    3.7893879897748867E-01    8.7760170960869599E-01   -1.4380630946351915E-03
Br    3.7383231450229620E-01    7.5233466704344876E-01    1.1078502076315808E-01
Cs    4.9245235385594438E-01    7.6016134858632323E-01   -5.6006030514763570E-03
Si    6.1214356008329740E-01    8.9011577360805694E-01    1.2610010578321854E-01
Br    5.0445901389217318E-01    8.7141247018357759E-01    1.3596230422956551E-01
Br    6.3474445231560839E-01    8.8456781649407956E-01   -1.6713556443231040E-02
Br    6.3980705544931726E-01    7.3810590253076680E-01    1.1370272539538118E-01
Cs    7.5268918859528811E-01    7.5795084560095216E-01   -1.6352740183938844E-02
Si    8.7169410653537482E-01    8.8413658668612927E-01    1.4424724572439671E-01
Br    7.5451920816065021E-01    8.7374450228662592E-01    1.1690822095291294E-01
Br    8.8549652033403625E-01    8.6755439574290583E-01   -1.6480280745019726E-02
Br    8.8837110230976191E-01    7.5709505507863761E-01    1.2703036980782056E-01
Cs   -5.8862136147879857E-03    2.9039041937394309E-03    2.5514246948121400E-01
Si    1.2003332745422611E-01    1.2125569882124453E-01    3.7037771764818445E-01
Br    5.0510160353001319E-03    1.1124646935644485E-01    3.6113564284438804E-01
Br    1.3742597888212349E-01    1.2662079628808881E-01    2.6159134990678862E-01
Br    1.2911113859589562E-01    1.4069667345155270E-02    3.7478732372770829E-01
Cs    2.5718755002495675E-01    3.4007763316520273E-03    2.6781884811158729E-01
Si    3.6037540748336244E-01    1.2839715814572689E-01    3.8306166173229639E-01
Br    2.4795339494836044E-01    1.2704184569266294E-01    3.9424563859803075E-01
Br    3.5815875126001312E-01    1.2487592022665490E-01    2.4322765004087929E-01
Br    3.5969131819531031E-01   -5.6667013289817322E-03    3.8992517854521280E-01
Cs    4.7751168643848046E-01    1.5868720289627922E-02    2.5938120338154408E-01
Si    6.2616396652257589E-01    1.0629171572468096E-01    3.8536012040838485E-01
Br    5.1109596965958315E-01    1.1300389261985250E-01    3.8599697407502132E-01
Br    6.4146624929888674E-01    1.0701495547381920E-01    2.7363021212042982E-01
Br    6.0971571486632725E-01   -6.1854233940429205E-03    4.0663823680991429E-01
Cs    7.4594708945919530E-01   -1.3153072031254582E-02    2.4784576390855290E-01
Si    8.6954089520685252E-01    1.3715604461570755E-01    3.8157031738228908E-01
Br    7.5387855289977668E-01    1.2523690119274811E-01    3.8615517466649585E-01
Br    8.7826529251151753E-01    1.2259381118206691E-01    2.5180016773301150E-01
Br    8.8132452269376305E-01   -2.2979724167449043E-03    3.8850564451367597E-01
Cs   -4.3753728816638409E-04    2.4323001942446892E-01    2.5774726136607001E-01
Si    1.2524865961241291E-01    3.7395109481582234E-01    3.6468889829875578E-01
Br   -1.3493999720244549E-02    3.6432433195909414E-01    3.7773777391288527E-01
Br    1.1513835497330793E-01    3.7633585921639862E-01    2.4394483566293843E-01
Br    1.1508945891912568E-01    2.6021258593212049E-01    3.7626789905982028E-01
Cs    2.4754834194834269E-01    2.6038768430252385E-01    2.5481137144906502E-01
Si    3.8465116606545691E-01    3.7583740427986057E-01    3.8592437733134732E-01
Br    2.4300400266858074E-01    3.7630307698949556E-01    3.6980181505396592E-01
Br    3.7419443491037191E-01    3.6435090069915094E-01    2.4291490901449125E-01
Br    3.7485753155643137E-01    2.4146438291252104E-01    3.7080399081131599E-01
Cs    4.8954557693727313E-01    2.4587178601044637E-01    2.4204768647425132E-01
Si    6.3597654866952313E-01    3.8175108113259293E-01    3.8010745897754322E-01
Br    4.9428300521855018E-01    3.5106146870164096E-01    3.9858713916699562E-01
Br    6.1707927612535751E-01    3.7593069414508135E-01    2.3786039243622384E-01
Br    6.3000262801325035E-01    2.3565640041531172E-01    3.6864538866152258E-01
Cs    7.4159183318125388E-01    2.3720459658131590E-01    2.5652264960367005E-01
Si    8.7446293550199128E-01    3.8505740682418588E-01    3.6327654165706369E-01
Br    7.4755275170634350E-01    3.8557888453856565E-01    3.6229056803572851E-01
Br    8.6892843502400496E-01    3.8800002205761785E-01    2.4926207944466860E-01
Br    8.7345760007975226E-01    2.5204525351792151E-01    3.6708362633366837E-01
Cs   -6.3249169266542549E-03    5.0624014875965484E-01    2.6669673091821611E-01
Si    1.2937984954672055E-01    6.2584596076984755E-01    3.8625031132425103E-01
Br    1.4140152288878917E-02    6.3004744407505098E-01    3.7672756908327454E-01
Br    1.3797609763476293E-01    6.3646757257767528E-01    2.6632070206780006E-01
Br    1.2717377006613720E-01    5.1145704208821530E-01    3.8432966633408022E-01
Cs    2.5268085644586669E-01    5.0121004101386857E-01    2.6222101554650590E-01
Si    3.7048390056295272E-01    6.2775573048651001E-01    3.7156079754361859E-01
Br    2.5395824311126869E-01    6.1331654766765120E-01    3.8551432723995066E-01
Br    3.8264818881405882E-01    6.3681926291672841E-01    2.5671057044936141E-01
Br    3.9155053475913298E-01    4.8752660524347563E-01    3.7363099012403989E-01
Cs    5.0097802954763138E-01    4.8525544960214934E-01    2.5389217109502721E-01
Si    6.2237140289495552E-01    6.3021170599637211E-01    3.6608135029007360E-01
Br    5.0470091876456569E-01    6.2146147664559015E-01    3.8835586391917509E-01
Br    6.0080408882882219E-01    6.3817616469441618E-01    2.3266905264297630E-01
Br    6.2826303452211074E-01    5.0398582425221650E-01    3.4932814455515926E-01
Cs    7.4773873535307644E-01    5.0604466031391659E-01    2.4258242970852556E-01
Si    8.7766403503055213E-01    6.2952309485944857E-01    3.7612956063436398E-01
Br    7.6037738275672784E-01    6.4223028342051647E-01    3.6088539615770920E-01
Br    8.7905173679239734E-01    6.3232254507149233E-01    2.3810077754570413E-01
Br    8.8398430965325259E-01    4.9869016105793695E-01    3.6067681237502069E-01
Cs    1.2386954217348841E-02    7.3906042661889637E-01    2.5749469049908635E-01
Si    1.4110512706811015E-01    8.7323303309725409E-01    3.7045210212837498E-01
Br   -7.6489131082028549E-03    8.8175290396000061E-01    3.8716191196527594E-01
Br    1.3814039514809162E-01    8.8126677878774773E-01    2.5698853026511975E-01
Br    1.1292115502333397E-01    7.5998049309314697E-01    3.8161656370895719E-01
Cs    2.4776923970966203E-01    7.5521758814492546E-01    2.4394504949133872E-01
Si    3.7089355597462709E-01    8.7347207942529781E-01    3.7881834336322595E-01
Br    2.5126449652079014E-01    8.5190902139194535E-01    3.9110190607539336E-01
Br    3.6549684891048118E-01    8.6565582324754464E-01    2.6045029281194942E-01
Br    3.7878074819867880E-01    7.4624601749602537E-01    3.7846977754733924E-01
Cs    4.8971199408276661E-01    7.5992091010189033E-01    2.4823044920462811E-01
Si    6.2469910668534356E-01    8.6774185701884066E-01    3.7824202711308613E-01
Br    4.9385971194911593E-01    8.7646209854754997E-01    3.9437362745812854E-01
Br    6.2949101335414148E-01    8.6231336029137240E-01    2.4119758422934892E-01
Br    6.2708090809895412E-01    7.4459901311758714E-01    3.6350204107735218E-01
Cs    7.5767201931367945E-01    7.5631351599231889E-01    2.3776164844440401E-01
Si    8.7323741617577044E-01    8.8721465679071676E-01    3.8016339349630213E-01
Br    7.3876403811844626E-01    8.8733798309154821E-01    3.8735224036804627E-01
Br    8.6741009563216365E-01    8.7111285678891393E-01    2.5004088668430829E-01
Br    8.8469757355439904E-01    7.4463800797752022E-01    3.7382393673830006E-01
Cs    1.1025720070485842E-02   -2.2381506215047548E-02    5.1528505831544213E-01
Si    1.0998458825714587E-01    1.3110652129401357E-01    6.2257866431376341E-01
Br   -8.7991494652414487E-03    1.1954257005573231E-01    6.3530083241590196E-01
Br    8.8496374742997777E-02    1.2842488467924973E-01    5.1202544510049142E-01
Br    1.2544710753912372E-01    2.0484390874418359E-02    6.2255615226596828E-01
Cs    2.6500500571609559E-01    1.4330318206541737E-03    5.1684188409043730E-01
Si    3.6221942617037495E-01    1.4325833307029212E-01    6.3714836123769636E-01
Br    2.4937271395664040E-01    1.2861666007449774E-01    6.1142550754456138E-01
Br    3.7751057389537862E-01    1.3374176477236954E-01    4.9797006007738853E-01
Br    3.6838603357490007E-01    1.8820986050602216E-03    6.2447475957376963E-01
Cs    4.7688605147131813E-01   -1.0299347723900388E-02    5.0445568040426614E-01
Si    6.4063148368716649E-01    1.2657501274878732E-01    6.1858732126846316E-01
Br    5.0615835330873060E-01    1.3113875387171459E-01    6.3464434377197743E-01
Br    6.3876589313567078E-01    1.2271715967223146E-01    5.1013424908384775E-01
Br    5.9545814197710367E-01   -3.9514525138477918E-03    6.1256884943448164E-01
Cs    7.5792198624200569E-01    5.1697783692831031E-03    4.9858285616310249E-01
Si    8.6755675304619451E-01    1.3255169540786174E-01    6.2636795368056575E-01
Br    7.5152615930238187E-01    1.1520274648997066E-01    6.3833364308813523E-01
Br    8.7913112049396991E-01    1.1909780023861420E-01    5.0856241702031102E-01
Br    8.7549954544006181E-01   -2.4472122436153959E-03    6.2276720827437282E-01
Cs   -1.4238970901088640E-02    2.5177083980240123E-01    4.9406184291238520E-01
Si    1.1114583177958109E-01    3.7229160342235795E-01    6.1350216138702196E-01
Br    8.0598594229458458E-03    3.8951263972448769E-01    6.1312337872201450E-01
Br    1.2579088440659433E-01    3.7649282509578658E-01    4.9794254126723975E-01
Br    1.1065565991104834E-01    2.6043654066165356E-01    6.2404001618344829E-01
Cs    2.4433333991868600E-01    2.6435000170687817E-01    4.9400038181467842E-01
Si    3.6185831557189191E-01    3.7846585486752793E-01    6.2719183840728576E-01
Br    2.5505848127193775E-01    3.7409048531992489E-01    6.3117544413741278E-01
Br    3.6330927887964787E-01    3.7153154927866638E-01    4.9217158267559363E-01
Br    3.7070680714118248E-01    2.5327040599276890E-01    6.2391704269006354E-01
Cs    5.0118929260709710E-01    2.3566911433388119E-01    5.0230642711928652E-01
Si    6.0964959360828830E-01    3.7449340893070626E-01    6.2629425013114515E-01
Br    5.0190606207771327E-01    3.7605260830168852E-01    6.3605868058714032E-01
Br    6.3714332792193373E-01    3.7476950737775538E-01    4.8855806447603378E-01
Br    6.3935645651183015E-01    2.4279902669131148E-01    6.2599708402160970E-01
Cs    7.5386813215634529E-01    2.4414376577197108E-01    5.0065446048270834E-01
Si    8.6491767193408986E-01    3.7656917502106974E-01    6.1749228278658075E-01
Br    7.5386257440743687E-01    3.6864257985937215E-01    6.1433245192655916E-01
Br    8.6619320150910084E-01    3.8922145381746703E-01    5.0701264301298998E-01
Br    8.7555119664492242E-01    2.4992548682418292E-01    6.2592726880980754E-01
Cs   -5.0737221249230685E-03    4.8505774346752839E-01    4.8212070012263192E-01
Si    1.3186646706314045E-01    6.0795280414736941E-01    6.1861082868762740E-01
Br    1.9065518772053633E-02    5.9319899138281862E-01    6.2496303036730760E-01
Br    1.2718102336082607E-01    6.2085008152987275E-01    5.0818241776321627E-01
Br    1.4335745231612929E-01    4.9358351214475438E-01    6.1875228698322038E-01
Cs    2.5836769708799884E-01    5.1034233763581038E-01    5.0753996525840650E-01
Si    3.6382952278280922E-01    6.3834647549316170E-01    6.2507422441757066E-01
Br    2.5878662822362847E-01    6.3744094328607437E-01    6.2741761318020806E-01
Br    3.7024800536351715E-01    6.4004717085947915E-01    5.0903042093648310E-01
Br    3.7590022892456598E-01    5.0168940500814785E-01    6.2297541944885970E-01
Cs    5.0313246274117018E-01    5.0971904466254780E-01    4.9400422811841010E-01
Si    6.3489509563621838E-01    6.4522072543661257E-01    6.2340473126419271E-01
Br    5.2173846910570221E-01    6.3831725449887111E-01    6.1948396678015905E-01
Br    6.2281813356126758E-01    6.2493090055280121E-01    4.7879155983003086E-01
Br    6.2083574690603149E-01    4.8216792014632648E-01    6.2432258369836702E-01
Cs    7.5225294682483246E-01    5.1278082423844307E-01    4.8479317083260826E-01
Si    8.7547465818713210E-01    6.2288000356907725E-01    6.2610903621489677E-01
Br    7.6710107266209704E-01    6.3012733337536686E-01    6.0472301088575386E-01
Br    8.8506175641879536E-01    6.1387737150556931E-01    4.8328849210090563E-01
Br    8.5743809057998643E-01    4.9373574102100692E-01    6.1611086886233579E-01
Cs   -2.4958403769521358E-03    7.3208417365503697E-01    5.1606037512480529E-01
Si    1.1631488500537270E-01    8.7142234226270754E-01    6.1483792896964173E-01
Br   -7.0596950615589679E-04    8.6582956191181093E-01    6.3830879520218931E-01
Br    1.2311423760341396E-01    8.6743146903127599E-01    5.0113453673503705E-01
Br    1.2249369830280112E-01    7.6077562834970880E-01    6.2160238605741647E-01
Cs    2.5534993091873848E-01    7.5305145609166402E-01    5.0598962022804683E-01
Si    3.6470034181772465E-01    8.8347056979862237E-01    6.2729970184897399E-01
Br    2.5692869791685569E-01    8.7350445991295866E-01    6.2298321232972453E-01
Br    3.6529182515821779E-01    8.6738564547907204E-01    4.9579754185720420E-01
Br    3.8664350382018348E-01    7.4650257756677407E-01    6.3115287720394664E-01
Cs    5.0360955513491124E-01    7.5811699613054950E-01    5.1105906637682674E-01
Si    6.0709452864124069E-01    8.8631938240131136E-01    6.2657529315467153E-01
Br    4.9412698047416831E-01    8.6950559243317949E-01    6.2527750573979857E-01
Br    6.2280118770240656E-01    8.5344622380184942E-01    4.8710953913853522E-01
Br    6.3953406109240152E-01    7.5865844624451295E-01    6.4233129744432260E-01
Cs    7.7177595261071985E-01    7.5218968151939025E-01    4.9620511294066649E-01
Si    8.6033456701630606E-01    8.8813433918736628E-01    6.2444275819569750E-01
Br    7.4854464498327133E-01    8.7801947398693092E-01    6.2424537188644713E-01
Br    8.7521172205278686E-01    8.7739024923559017E-01    4.9505602922345360E-01
Br    8.8331232827159734E-01    7.4090037041673307E-01    6.3014524791514626E-01
Cs    5.3867648511378491E-03   -1.2426086217086485E-02    7.5809089012458353E-01
Si    1.1299221228393111E-01    1.4812313521571768E-01    8.7597408485114536E-01
Br   -1.4357006417490874E-02    1.3330055790280507E-01    8.7035385715243818E-01
Br    1.1858861725885445E-01    1.3218433796178139E-01    7.6372951327175953E-01
Br    1.4257836567364104E-01   -4.6583855980194258E-03    8.7867326928020562E-01
Cs    2.3699082948808731E-01    2.0652360896929508E-02    7.4913653639850486E-01
Si    3.6186158127215484E-01    1.1627408522243354E-01    8.8952550860790858E-01
Br    2.5086256953902136E-01    1.2146191071600114E-01    8.9562176913344793E-01
Br    3.6475785478256412E-01    1.4072512575522186E-01    7.4812257602646359E-01
Br    3.6017459556048359E-01    5.7729712989898494E-03    8.7407629725861746E-01
Cs    5.0054834764917699E-01    2.2733871253779132E-02    7.5770555133462281E-01
Si    6.3194840289432563E-01    1.2901693173431916E-01    8.7870022875670561E-01
Br    5.0778170429474512E-01    1.0932326435940683E-01    8.8484934981728836E-01
Br    6.3969347615827477E-01    1.1334183872059628E-01    7.5515447125946555E-01
Br    6.2650269084817356E-01   -4.9200144552796529E-03    8.8676671571452237E-01
Cs    7.4906835949506578E-01   -1.4001003145924073E-02    7.6293906785477350E-01
Si    8.7922571305729724E-01    1.2552181305593474E-01    8.9941184379213202E-01
Br    7.5788500851057661E-01    1.3146590063461272E-01    8.8539310044269726E-01
Br    8.6873551723326892E-01    1.2616523459132054E-01    7.4648473320326891E-01
Br    8.7677883499048614E-01    9.9187626654487961E-03    8.7957453638221761E-01
Cs   -1.4616209543229129E-03    2.5168167495901511E-01    7.4910028157916908E-01
Si    1.2279423397872834E-01    3.9306619985350411E-01    8.6127830871612432E-01
Br    1.0452923367013771E-02    3.6666819257851363E-01    8.7955979186849198E-01
Br    1.1763516553722242E-01    3.8173241741908087E-01    7.5080453714111872E-01
Br    1.3108352279010549E-01    2.5613091626759477E-01    8.7607274040423999E-01
Cs    2.4281535181929084E-01    2.4395172727792663E-01    7.5734879859695747E-01
Si    3.7527227906872684E-01    3.6125455515619409E-01    8.6583140980454287E-01
Br    2.5661456038602876E-01    3.7583629993221229E-01    8.5754254621148962E-01
Br    3.7036640532921289E-01    3.5991080831421168E-01    7.3255344884323137E-01
Br    3.7759377517582893E-01    2.5049292970851728E-01    8.8721211147903467E-01
Cs    5.0164925346099787E-01    2.3574937793039247E-01    7.6372544377950236E-01
Si    6.1978940135484495E-01    3.8792592589187791E-01    8.7601192085754787E-01
Br    5.0935388323415898E-01    3.6835584273709737E-01    8.5775080744513055E-01
Br    6.3181771875993809E-01    3.7143887600402709E-01    7.3788960162224726E-01
Br    6.2147101001945815E-01    2.3762073664660341E-01    8.7427061771834347E-01
Cs    7.4741199862355467E-01    2.5439559425043279E-01    7.4711653108203901E-01
Si    8.7178032066929967E-01    3.7722003259145387E-01    8.6118050567627891E-01
Br    7.5735105145679738E-01    3.9363391013919780E-01    8.6247288414990242E-01
Br    8.6994857411394433E-01    3.8698647569471495E-01    7.4648807102637293E-01
Br    8.7269471467630910E-01    2.6053965259186429E-01    8.6588341489718301E-01
Cs   -1.6618039862702952E-02    4.9397823382845896E-01    7.5836137506052148E-01
Si    1.2697619626693760E-01    6.1994366304699433E-01    8.7440853749267211E-01
Br   -8.2577802569461945E-03    6.0807380372057940E-01    8.7287385334405865E-01
Br    1.1572524433779834E-01    6.1880968055523333E-01    7.5741712983649057E-01
Br    1.3179164376514202E-01    5.0113483399585945E-01    8.7457755129012349E-01
Cs    2.6626256751626848E-01    4.9765625228804533E-01    7.5822158026521547E-01
Si    3.8118819470537074E-01    6.2280864047345530E-01    8.7276816981789296E-01
Br    2.5963816503959625E-01    6.1345432197282868E-01    8.7527191108899360E-01
Br    3.6810406975015869E-01    6.2962069071668791E-01    7.5961236067830717E-01
Br    3.8289929206242873E-01    5.0994357159250980E-01    8.7859738015519651E-01
Cs    5.0276728592828079E-01    5.1652494800675430E-01    7.4592049605426514E-01
Si    6.2591076315464256E-01    6.2835644016011383E-01    8.8436267200655194E-01
Br    5.0293232347265759E-01    6.2607303771580880E-01    8.9127699444084718E-01
Br    6.2794760247915915E-01    6.2537171074850795E-01    7.2801557413102669E-01
Br    6.2480577057706821E-01    4.9272835504452933E-01    8.6977397335578255E-01
Cs    7.4700021681683659E-01    5.0818147625481258E-01    7.4684952554221951E-01
Si    8.6310141333446466E-01    6.2402828452333570E-01    8.8301071390241848E-01
Br    7.4234799571634813E-01    6.3046665565539972E-01    8.7339402595435467E-01
Br    8.5744132876463008E-01    6.3442902827570524E-01    7.4126189224312122E-01
Br    8.5966757456352982E-01    5.1788905788776651E-01    8.7754074144885741E-01
Cs    3.8554739858443271E-03    7.4669484163099187E-01    7.4708264658030543E-01
Si    1.3128875280412880E-01    8.7123549386595067E-01    8.5949259796724642E-01
Br    1.3448169808067366E-02    8.5725987725584119E-01    8.6452617844947821E-01
Br    1.3544526639396462E-01    8.7901753994371601E-01    7.5036125937190490E-01
Br    1.3670371237780896E-01    7.2952412243238640E-01    8.7562876220044694E-01