 # Version information for this restart file 
 # current date 2021-09-13 12:55:16.701
 # current working dir /projectsp/f_rcr78_1/MW/Hybrid_Perovskite/CsSiBr3/4x4/500K/WC
 # Program compiled at                              Fri Sep 13 14:50:45 EDT 2019
 # Program compiled on                             slepner083.amarel.rutgers.edu
 # Program compiled for                                                    local
 # Source code revision number                                       git:e35496b
 &GLOBAL
   PRINT_LEVEL  LOW
   PROJECT_NAME CSB_WC
   RUN_TYPE  MD
   WALLTIME 47:58:00
 &END GLOBAL
 &MOTION
   &MD
     ENSEMBLE  NVT
     STEPS  5000
     TIMESTEP     9.9999999999999989E-01
     STEP_START_VAL  5527
     TIME_START_VAL     5.5269999999994961E+03
     ECONS_START_VAL    -4.1271290342870643E+03
     TEMPERATURE     5.0000000000000000E+02
     COMVEL_TOL     1.0000000000000000E-08
     &THERMOSTAT
       TYPE  CSVR
       &CSVR
         TIMECON     9.9999999999999986E+01
         &THERMOSTAT_ENERGY
              -8.5115558272327452E-01
         &END THERMOSTAT_ENERGY
         &RNG_INIT
Wiener process for Thermostat # 1        1 F T F   3.4618009901395869E-01        2816111209.0        3195211270.0        1422121742.0        3091607842.0         582873496.0        1738165257.0             12345.0             12345.0             12345.0             12345.0             12345.0             12345.0             12345.0             12345.0             12345.0             12345.0             12345.0             12345.0
         &END RNG_INIT
       &END CSVR
     &END THERMOSTAT
     &AVERAGES  T
       &RESTART_AVERAGES
         ITIMES_START  1
         AVECPU     2.4319227701501342E+02
         AVEHUGONIOT     0.0000000000000000E+00
         AVETEMP_BARO     0.0000000000000000E+00
         AVEPOT    -4.1271231450044143E+03
         AVEKIN     7.5244944325919150E-01
         AVETEMP     4.9656104077311932E+02
         AVEKIN_QM     0.0000000000000000E+00
         AVETEMP_QM     0.0000000000000000E+00
         AVEVOL     7.0919701531041777E+04
         AVECELL_A     4.1392561214727309E+01
         AVECELL_B     4.1392561214727309E+01
         AVECELL_C     4.1392561214727309E+01
         AVEALPHA     9.0000000000000000E+01
         AVEBETA     9.0000000000000000E+01
         AVEGAMMA     9.0000000000000000E+01
         AVE_ECONS     3.3303440900576858E-01
         AVE_PRESS     0.0000000000000000E+00
         AVE_PXX     0.0000000000000000E+00
       &END RESTART_AVERAGES
     &END AVERAGES
   &END MD
   &PRINT
     &TRAJECTORY  SILENT
       &EACH
         MD  1
       &END EACH
     &END TRAJECTORY
     &VELOCITIES  SILENT
       &EACH
         MD  1
       &END EACH
     &END VELOCITIES
     &FORCES  SILENT
       &EACH
         MD  1
       &END EACH
     &END FORCES
     &STRESS  SILENT
       &EACH
         MD  1
       &END EACH
     &END STRESS
     &RESTART  SILENT
       BACKUP_COPIES  3
       &EACH
         MD  1
       &END EACH
     &END RESTART
     &RESTART_HISTORY  SILENT
       &EACH
         MD  5
       &END EACH
     &END RESTART_HISTORY
   &END PRINT
 &END MOTION
 &FORCE_EVAL
   METHOD  QS
   &DFT
     BASIS_SET_FILE_NAME BASIS_MOLOPT
     POTENTIAL_FILE_NAME GTH_POTENTIALS
     MULTIPLICITY  1
     CHARGE  0
     &SCF
       MAX_SCF  30
       EPS_SCF     1.0000000000000001E-05
       SCF_GUESS  ATOMIC
       &OT  T
         MINIMIZER  DIIS
         PRECONDITIONER  FULL_SINGLE_INVERSE
       &END OT
       &OUTER_SCF  T
         EPS_SCF     1.0000000000000001E-05
         MAX_SCF  10
       &END OUTER_SCF
       &PRINT
         &RESTART  OFF
         &END RESTART
       &END PRINT
     &END SCF
     &QS
       EPS_DEFAULT     1.0000000000000000E-10
       EXTRAPOLATION  ASPC
       METHOD  GPW
     &END QS
     &MGRID
       NGRIDS  4
       CUTOFF     4.0000000000000000E+02
       REL_CUTOFF     9.0000000000000000E+01
     &END MGRID
     &XC
       DENSITY_CUTOFF     1.0000000000000000E-10
       GRADIENT_CUTOFF     1.0000000000000000E-10
       TAU_CUTOFF     1.0000000000000000E-10
       &XC_FUNCTIONAL  NO_SHORTCUT
         &PBE  T
         &END PBE
       &END XC_FUNCTIONAL
     &END XC
     &POISSON
       PERIODIC  XYZ
     &END POISSON
     &LOCALIZE  T
       USE_HISTORY  T
       EPS_LOCALIZATION     1.0000000000000001E-05
       METHOD  JACOBI
       &PRINT
         &WANNIER_CENTERS  SILENT
           IONS+CENTERS  T
         &END WANNIER_CENTERS
         &WANNIER_SPREADS  SILENT
         &END WANNIER_SPREADS
       &END PRINT
     &END LOCALIZE
     &REAL_TIME_PROPAGATION
       INITIAL_WFN  SCF_WFN
     &END REAL_TIME_PROPAGATION
     &PRINT
       &MO_CUBES  SILENT
         WRITE_CUBE  F
         NLUMO  4
         NHOMO  4
         &EACH
           MD  10
         &END EACH
       &END MO_CUBES
       &E_DENSITY_CUBE  OFF
       &END E_DENSITY_CUBE
     &END PRINT
   &END DFT
   &SUBSYS
     &CELL
       A     2.1904000000000000E+01    0.0000000000000000E+00    0.0000000000000000E+00
       B     0.0000000000000000E+00    2.1904000000000000E+01    0.0000000000000000E+00
       C     0.0000000000000000E+00    0.0000000000000000E+00    2.1904000000000000E+01
       MULTIPLE_UNIT_CELL  1 1 1
     &END CELL
     &COORD
Cs   -8.1162528377905340E-03   -1.5732295248916037E-02    8.0015318436982095E-03
Si    1.1947617720741432E-01    1.2190894542346914E-01    1.2562097923506069E-01
Br    1.1426640758361931E-02    1.3327200042612372E-01    1.3965703664923385E-01
Br    1.0992937786977960E-01    9.8196934455127879E-02    8.8349817336204409E-03
Br    1.3331080405448054E-01    1.4178422094090447E-02    1.4830725516331963E-01
Cs    2.4221233064568956E-01    6.6757044585654722E-03    2.6182942244913536E-03
Si    3.5692267729289667E-01    1.4459930336365959E-01    1.3031895666809282E-01
Br    2.4846184789320483E-01    1.4654133538303357E-01    1.0639952521104183E-01
Br    3.9038008666140162E-01    1.1613377946817920E-01   -3.0747720107756494E-03
Br    3.7468102384511653E-01    3.5311509919715126E-03    1.1781735178457121E-01
Cs    5.1500772591354427E-01    1.2648155670737219E-02    1.4925325382697655E-02
Si    6.2543106539491977E-01    1.3000334663016638E-01    1.3323498795132621E-01
Br    5.0916045338118132E-01    1.0764441438009051E-01    1.3441454771064110E-01
Br    6.3782033722948861E-01    1.1035393555487874E-01    1.4842092184382255E-02
Br    6.2338585880065800E-01   -1.7429415105461024E-03    1.3425491051093699E-01
Cs    7.5243046031461558E-01   -7.9066443847379867E-04   -8.5088398947625859E-03
Si    8.6722036896106869E-01    1.3753507625242503E-01    1.3764491186167296E-01
Br    7.5103436127070911E-01    1.2633137381406667E-01    1.5031514184536257E-01
Br    8.7779298547323237E-01    1.4311970165615007E-01    9.4419953533602646E-03
Br    8.6123202228468621E-01    2.8957943771627036E-03    1.3141327860354263E-01
Cs   -8.6278429189779935E-04    2.4937602214930912E-01    3.1541140219430242E-03
Si    1.1750867164062632E-01    3.8127098072720284E-01    1.0572057566221593E-01
Br    4.5072815777388179E-03    3.7953646781631734E-01    1.1573149197494956E-01
Br    1.3425311830041559E-01    4.0116417594129250E-01   -3.4280939212497094E-03
Br    1.2389390475717653E-01    2.6341724754798501E-01    9.2274374042384602E-02
Cs    2.5530220915216545E-01    2.9419840750526516E-01   -4.5293745237587101E-03
Si    3.5626596008770445E-01    3.8407930599427065E-01    1.3876941558198658E-01
Br    2.5125247634268988E-01    3.7925843671328813E-01    1.4039343560903214E-01
Br    3.8305730589419457E-01    3.8873838799105664E-01   -1.4880745713606588E-02
Br    3.8137550038089807E-01    2.5237302219428887E-01    1.1979424735636275E-01
Cs    5.2517409370686075E-01    2.4565994186034948E-01    3.7435109886367283E-03
Si    6.1200119194365976E-01    3.8064855735315334E-01    1.3140207969021894E-01
Br    5.0135879505927650E-01    3.7301371516755827E-01    1.3472302929150143E-01
Br    6.2977045931116016E-01    3.7316909192681746E-01   -4.4074755347537475E-03
Br    6.1475310179888520E-01    2.5051258742788018E-01    1.3779484661887778E-01
Cs    7.4384513355174986E-01    2.5382406042302508E-01    7.7588760586907906E-03
Si    8.6316320606425434E-01    3.7650635808621086E-01    1.2179999442437185E-01
Br    7.4579001150912660E-01    3.6495789685471630E-01    1.3563584942659349E-01
Br    8.6919911207897760E-01    3.6222131170129812E-01    9.8378814112219139E-03
Br    8.7871746839894138E-01    2.4744434090034539E-01    1.3026682305772730E-01
Cs   -9.8275220358876175E-03    5.0666963047275504E-01    2.4582323293063034E-03
Si    1.4132034822513181E-01    6.2932949019752815E-01    1.2067978768478377E-01
Br   -3.5844624387443009E-03    6.1089764465489083E-01    1.3237760225869860E-01
Br    1.3453658885174369E-01    6.2343314710404929E-01    4.9008912717198646E-03
Br    1.4080859694464193E-01    5.1401475703156030E-01    1.3651388428313627E-01
Cs    2.4565560285674284E-01    5.1445924842850133E-01    2.8862977343092700E-03
Si    3.7904005993314765E-01    6.3540754877625583E-01    1.1937784360157620E-01
Br    2.5262207336567594E-01    6.2589724287893833E-01    1.1933319912686487E-01
Br    3.8477171568047847E-01    6.1034411067379490E-01    1.2547533050756053E-02
Br    3.6264764798690291E-01    5.0326372064630676E-01    1.3976436997801275E-01
Cs    5.0316574662881886E-01    5.0145048473472364E-01   -3.3610691529013881E-03
Si    6.2792718804840519E-01    6.3332126351369900E-01    1.2808851032967733E-01
Br    4.9846129264884109E-01    6.3242083547275574E-01    1.1845341093970312E-01
Br    6.3100507955088780E-01    6.1677402956147209E-01   -1.9367477869866498E-03
Br    6.1176393831368503E-01    4.9714737993909902E-01    1.2381709183902195E-01
Cs    7.5706260134329617E-01    4.9170944249618675E-01   -1.8063434310640197E-03
Si    8.8291904623336015E-01    6.4203338910995322E-01    1.3271791146425260E-01
Br    7.4555917490371526E-01    6.2719214536729029E-01    1.2929213418988830E-01
Br    8.7392473803107462E-01    6.2635162911618558E-01   -1.1866577096451884E-02
Br    8.6445051370581294E-01    4.8285207599236024E-01    1.0868126091321652E-01
Cs    2.3992278126058202E-03    7.3109223760536779E-01   -2.1156026872195772E-02
Si    1.2688306778979785E-01    8.7276905845132646E-01    1.0773354865525220E-01
Br    1.3235165552789462E-02    8.8296796303874348E-01    1.2322018194054565E-01
Br    1.2937782171031409E-01    8.5970733485959916E-01   -1.0916660060218466E-02
Br    1.2140040848415620E-01    7.5703390418562055E-01    1.2428121202998926E-01
Cs    2.5250713450922363E-01    7.4383203231248463E-01   -1.2833548519547811E-02
Si    3.7069730550852298E-01    8.8630719887396436E-01    1.1260525375410989E-01
Br    2.5777030644196042E-01    8.6888043248524349E-01    9.4752283661645051E-02
Br    3.7881736113580794E-01    8.7769354308238379E-01   -1.4950705783704397E-03
Br    3.7383681933202756E-01    7.5256067091066214E-01    1.1108027208049170E-01
Cs    4.9240624055031468E-01    7.6016988189791068E-01   -5.4987576449735962E-03
Si    6.1199944895196123E-01    8.8998456632163570E-01    1.2611263280264409E-01
Br    5.0427191554379491E-01    8.7105574553240206E-01    1.3614565449922908E-01
Br    6.3469398904220331E-01    8.8457011349205994E-01   -1.6671520926167745E-02
Br    6.3960025382501651E-01    7.3816340453941331E-01    1.1347066497810371E-01
Cs    7.5300361051447073E-01    7.5803571544050441E-01   -1.6104912832485989E-02
Si    8.7187961965267291E-01    8.8421767571952081E-01    1.4402939204922777E-01
Br    7.5457211759611076E-01    8.7366060820995106E-01    1.1671112635813985E-01
Br    8.8574670059217830E-01    8.6753593423109532E-01   -1.6422209196570198E-02
Br    8.8805142567166884E-01    7.5690687370785381E-01    1.2704886146169514E-01
Cs   -6.1206607776437515E-03    3.0157815964902057E-03    2.5507212928651163E-01
Si    1.2070536443032118E-01    1.2172929421596732E-01    3.7008365311785318E-01
Br    5.1277213333522911E-03    1.1112699836777835E-01    3.6150875904558266E-01
Br    1.3747305487857878E-01    1.2682920548070309E-01    2.6168211879995135E-01
Br    1.2884359335714024E-01    1.3870998534476051E-02    3.7460685430118074E-01
Cs    2.5700606406604048E-01    3.2867662268686588E-03    2.6790295719117618E-01
Si    3.6013621435219728E-01    1.2846523514977737E-01    3.8290654907454680E-01
Br    2.4810742270421277E-01    1.2692919752451134E-01    3.9410243533796391E-01
Br    3.5799636493621739E-01    1.2483678933180949E-01    2.4314424020506401E-01
Br    3.5980315542934027E-01   -5.6612880561626939E-03    3.9005087748317158E-01
Cs    4.7737582963283320E-01    1.5701125225359758E-02    2.5921666785532599E-01
Si    6.2615760319079405E-01    1.0670357546496050E-01    3.8511883953857584E-01
Br    5.1143489593597724E-01    1.1300577213496102E-01    3.8579094079801346E-01
Br    6.4181488767134143E-01    1.0708432336408441E-01    2.7313052134685217E-01
Br    6.0962375066073271E-01   -6.4051114818923262E-03    4.0655616965537000E-01
Cs    7.4581170120372264E-01   -1.2955833148197381E-02    2.4783609586891903E-01
Si    8.6934468880600646E-01    1.3688877669817928E-01    3.8135670646228270E-01
Br    7.5399371146934857E-01    1.2540414611460654E-01    3.8615078805747760E-01
Br    8.7851916662009255E-01    1.2250133344744335E-01    2.5160619932139028E-01
Br    8.8108547727570596E-01   -2.0463410112447396E-03    3.8850365947733811E-01
Cs   -5.3967292448826669E-04    2.4297240244074497E-01    2.5784552186639664E-01
Si    1.2480906969676647E-01    3.7442141618538410E-01    3.6480379260891865E-01
Br   -1.3682570862191802E-02    3.6405952745690817E-01    3.7797878262051304E-01
Br    1.1484817160141531E-01    3.7619739142324826E-01    2.4429570847565846E-01
Br    1.1488519094573101E-01    2.6025576399355210E-01    3.7591492270454380E-01
Cs    2.4756930496877402E-01    2.6044463539395279E-01    2.5488844403658911E-01
Si    3.8473911544443185E-01    3.7529297737220052E-01    3.8690339965010562E-01
Br    2.4311326451752618E-01    3.7660301171321670E-01    3.6948202918236145E-01
Br    3.7413642742776293E-01    3.6420405359308555E-01    2.4299251246611683E-01
Br    3.7462113245788503E-01    2.4196587486526883E-01    3.7056179731387484E-01
Cs    4.8986247007904726E-01    2.4561627237721961E-01    2.4190059476286738E-01
Si    6.3577074834970215E-01    3.8160273479801604E-01    3.8030963255663724E-01
Br    4.9448707077759652E-01    3.5136974551516015E-01    3.9836538227723051E-01
Br    6.1667216398956992E-01    3.7579808869459608E-01    2.3828805091745517E-01
Br    6.3035997895016838E-01    2.3542677578876728E-01    3.6861561763631834E-01
Cs    7.4149582235950617E-01    2.3723260003444618E-01    2.5635452150084775E-01
Si    8.7487962055192137E-01    3.8521267139718607E-01    3.6359349995886447E-01
Br    7.4761131864863384E-01    3.8570469169494670E-01    3.6234830663235124E-01
Br    8.6854521810065233E-01    3.8796903187706289E-01    2.4897316521440102E-01
Br    8.7333409870154999E-01    2.5193014035706179E-01    3.6701714606922553E-01
Cs   -6.1394059728419655E-03    5.0622271226209781E-01    2.6667830507612272E-01
Si    1.2958465439888331E-01    6.2528750854403492E-01    3.8655381895613738E-01
Br    1.4027412610712020E-02    6.3029983634894393E-01    3.7668928028253351E-01
Br    1.3807134071890553E-01    6.3673678750018914E-01    2.6630511727496625E-01
Br    1.2713111544623318E-01    5.1173475950549840E-01    3.8456036961319157E-01
Cs    2.5289866180557347E-01    5.0136488264825585E-01    2.6198913099981136E-01
Si    3.6985137724429984E-01    6.2756134612424674E-01    3.7162092475491343E-01
Br    2.5378142265136017E-01    6.1331248775815428E-01    3.8554019197529898E-01
Br    3.8266606620815402E-01    6.3691909260951152E-01    2.5642809103745157E-01
Br    3.9170539176822033E-01    4.8715918792888840E-01    3.7330010179235001E-01
Cs    5.0106924363541405E-01    4.8535952022355333E-01    2.5368001563201242E-01
Si    6.2229165946314446E-01    6.3016722344499776E-01    3.6596028500025662E-01
Br    5.0477134915562083E-01    6.2127080437046944E-01    3.8843660303251315E-01
Br    6.0104951327119527E-01    6.3837496377047975E-01    2.3268587187709008E-01
Br    6.2832285222582451E-01    5.0338041425381042E-01    3.4942767370330202E-01
Cs    7.4761769366772823E-01    5.0566930570851720E-01    2.4289074451423043E-01
Si    8.7778122712626672E-01    6.2999654680465322E-01    3.7553864909747148E-01
Br    7.6064323393758437E-01    6.4177616792407866E-01    3.6047814285488378E-01
Br    8.7910302282438801E-01    6.3193133284461722E-01    2.3833646739363804E-01
Br    8.8405189088732183E-01    4.9882562559160004E-01    3.6068345240509153E-01
Cs    1.2377045656516945E-02    7.3903107107800448E-01    2.5769140307859734E-01
Si    1.4103282797959787E-01    8.7345039870868191E-01    3.7095797632726618E-01
Br   -7.7047256951318140E-03    8.8191148524552831E-01    3.8746608069645005E-01
Br    1.3790674893577404E-01    8.8129430721868451E-01    2.5716845256694648E-01
Br    1.1281891821468765E-01    7.5976342614228032E-01    3.8178977402706071E-01
Cs    2.4778192386912742E-01    7.5515854318597830E-01    2.4409247212499210E-01
Si    3.7111358223129992E-01    8.7346260800917519E-01    3.7930171197947249E-01
Br    2.5138996535279456E-01    8.5222681736129213E-01    3.9133892951026722E-01
Br    3.6542485770154293E-01    8.6558523705744617E-01    2.6081400765293095E-01
Br    3.7882158307347152E-01    7.4606596612250664E-01    3.7838969878378698E-01
Cs    4.8980868309531278E-01    7.5992567038590420E-01    2.4827271839522849E-01
Si    6.2508170368881255E-01    8.6761841472744650E-01    3.7828326297983428E-01
Br    4.9390799136968516E-01    8.7635527145868808E-01    3.9425923014410108E-01
Br    6.2940830984667573E-01    8.6182873626055889E-01    2.4146370441398901E-01
Br    6.2691949984034645E-01    7.4447806061825128E-01    3.6334865297343222E-01
Cs    7.5737982342797894E-01    7.5634702934837306E-01    2.3803912799739252E-01
Si    8.7372459244762057E-01    8.8680227143913126E-01    3.8047525461165865E-01
Br    7.3891393036243647E-01    8.8710791802156042E-01    3.8765023230628254E-01
Br    8.6740632385429672E-01    8.7113623292533426E-01    2.4992041501181589E-01
Br    8.8442266782523460E-01    7.4487303270438787E-01    3.7356551056697024E-01
Cs    1.0918461541066080E-02   -2.2262269204202264E-02    5.1519709682707615E-01
Si    1.0986055449812636E-01    1.3096471707678159E-01    6.2263488584895044E-01
Br   -9.1894155755868710E-03    1.1933474077781769E-01    6.3514167733508253E-01
Br    8.7963828392087537E-02    1.2806768890361467E-01    5.1224147449517288E-01
Br    1.2523756006163556E-01    2.0317993745959963E-02    6.2242385736992412E-01
Cs    2.6498663588258675E-01    1.6207936265902193E-03    5.1659340524954356E-01
Si    3.6230514158151206E-01    1.4363486002049650E-01    6.3729280886447881E-01
Br    2.4934353573554097E-01    1.2870227234826437E-01    6.1137476533926005E-01
Br    3.7753433631222916E-01    1.3375588479429348E-01    4.9780956775988017E-01
Br    3.6870722200683453E-01    1.9288554261683074E-03    6.2496179335466795E-01
Cs    4.7672348012569876E-01   -1.0414639237751471E-02    5.0429359721509681E-01
Si    6.4084085834639604E-01    1.2660256809577883E-01    6.1895306465195443E-01
Br    5.0620619577993931E-01    1.3099158615002135E-01    6.3471833589795990E-01
Br    6.3875730720005086E-01    1.2230557082460825E-01    5.1034677357940794E-01
Br    5.9568678662890229E-01   -3.6249395907340582E-03    6.1299278313213468E-01
Cs    7.5764757436667107E-01    5.1248926073051608E-03    4.9862232811120222E-01
Si    8.6793926544855204E-01    1.3286226505772322E-01    6.2632113786985011E-01
Br    7.5166362959062183E-01    1.1516471191589553E-01    6.3857790497351219E-01
Br    8.7927766224753778E-01    1.1914249070876294E-01    5.0878072010600295E-01
Br    8.7550086411154426E-01   -2.3461233177021219E-03    6.2299433132503990E-01
Cs   -1.4083060358734772E-02    2.5161330393545955E-01    4.9394719465229303E-01
Si    1.1074674131517805E-01    3.7240650253909241E-01    6.1320014408568713E-01
Br    8.1625362549163517E-03    3.8975495898693724E-01    6.1321128126476210E-01
Br    1.2593307016782260E-01    3.7668135868438102E-01    4.9770692325146731E-01
Br    1.1081045776569605E-01    2.6075610724550879E-01    6.2418630699198951E-01
Cs    2.4446184487982009E-01    2.6429984974100595E-01    4.9398333762027363E-01
Si    3.6188355768239172E-01    3.7870393254840257E-01    6.2753285538279502E-01
Br    2.5534840782059431E-01    3.7400357750691915E-01    6.3137984711704687E-01
Br    3.6295307246150099E-01    3.7179443818687086E-01    4.9218576494801586E-01
Br    3.7039541530458980E-01    2.5360151028554001E-01    6.2374464648147632E-01
Cs    5.0092839948907575E-01    2.3597274812876459E-01    5.0243584374603523E-01
Si    6.0960312260622374E-01    3.7433139256264680E-01    6.2650623352259671E-01
Br    5.0175799924934750E-01    3.7617376256442608E-01    6.3627174147257826E-01
Br    6.3720608000252033E-01    3.7511707530121768E-01    4.8864649261188670E-01
Br    6.3970152868291785E-01    2.4273742491882397E-01    6.2591242756390875E-01
Cs    7.5375875927429425E-01    2.4430912598450205E-01    5.0042588244690445E-01
Si    8.6539363026802252E-01    3.7595252152252878E-01    6.1724456171842934E-01
Br    7.5378896085621616E-01    3.6854746499292335E-01    6.1426516288836319E-01
Br    8.6621760640532286E-01    3.8930360527323793E-01    5.0669657652269950E-01
Br    8.7582602517843133E-01    2.4959613805212208E-01    6.2601569562856596E-01
Cs   -5.4754858233240621E-03    4.8508379764337051E-01    4.8230228449706092E-01
Si    1.3163567028604883E-01    6.0838600055276670E-01    6.1898859532950423E-01
Br    1.9374171840890596E-02    5.9340918540319565E-01    6.2514714153692008E-01
Br    1.2715301201122958E-01    6.2060149410555809E-01    5.0820007003169154E-01
Br    1.4332026808743351E-01    4.9419384748102274E-01    6.1884887802790889E-01
Cs    2.5799636737765774E-01    5.1025664410369220E-01    5.0740181130211026E-01
Si    3.6441628248572711E-01    6.3830787095458930E-01    6.2449031797678289E-01
Br    2.5866541390026143E-01    6.3748034927026287E-01    6.2766261268871271E-01
Br    3.7028352656498414E-01    6.4019688594812585E-01    5.0879565604423405E-01
Br    3.7617927857980865E-01    5.0152207522968661E-01    6.2296205251746517E-01
Cs    5.0331086917978451E-01    5.0942144062344319E-01    4.9380387913356083E-01
Si    6.3497712134321715E-01    6.4462118967439630E-01    6.2326733771305298E-01
Br    5.2176493765951859E-01    6.3853766252926647E-01    6.1975931757192537E-01
Br    6.2292223089753040E-01    6.2499478660297458E-01    4.7884983398704034E-01
Br    6.2078802778747399E-01    4.8200182800596764E-01    6.2431521654280309E-01
Cs    7.5210701644160105E-01    5.1286487456084251E-01    4.8471996138560475E-01
Si    8.7561726054205091E-01    6.2245697462270677E-01    6.2617325392853529E-01
Br    7.6700116781473926E-01    6.2993082022779257E-01    6.0453765821901806E-01
Br    8.8512514574483525E-01    6.1385136232917081E-01    4.8310802667177688E-01
Br    8.5751738367918617E-01    4.9361268767873429E-01    6.1581739144576242E-01
Cs   -2.4084144602630592E-03    7.3212312826557580E-01    5.1591467076361919E-01
Si    1.1577142319428238E-01    8.7137920829578108E-01    6.1441937932154411E-01
Br   -7.2953654797222654E-04    8.6578049017794834E-01    6.3841459860096816E-01
Br    1.2299975560962159E-01    8.6794596870815954E-01    5.0092500817935148E-01
Br    1.2247632088875020E-01    7.6130172355379422E-01    6.2124397053105940E-01
Cs    2.5540767222412031E-01    7.5282583235151046E-01    5.0597239756046331E-01
Si    3.6553043458091450E-01    8.8424680196279826E-01    6.2700442622380759E-01
Br    2.5673230923802776E-01    8.7419242509380546E-01    6.2299654827659701E-01
Br    3.6530923407179533E-01    8.6742066044498145E-01    4.9591898886971991E-01
Br    3.8707852518505420E-01    7.4667933015224452E-01    6.3124946912711566E-01
Cs    5.0364410687847205E-01    7.5775004087961972E-01    5.1102914579100445E-01
Si    6.0714039123578645E-01    8.8610351464349746E-01    6.2688175673167779E-01
Br    4.9432714820564611E-01    8.6939360527804632E-01    6.2511713516221146E-01
Br    6.2273085529477357E-01    8.5365302930656173E-01    4.8707666647325920E-01
Br    6.3950091628178030E-01    7.5855036918685748E-01    6.4200043376581817E-01
Cs    7.7162726864165532E-01    7.5220708868209851E-01    4.9635425432845698E-01
Si    8.5960857859074402E-01    8.8843036745059423E-01    6.2469185976470620E-01
Br    7.4842534043227626E-01    8.7780624562421894E-01    6.2417011530945476E-01
Br    8.7523012422073221E-01    8.7739105424004005E-01    4.9543142217724456E-01
Br    8.8302905039671420E-01    7.4129129609480215E-01    6.2976131666911017E-01
Cs    5.3482491058155111E-03   -1.2365561174992174E-02    7.5803911954509440E-01
Si    1.1318857781330281E-01    1.4808896587322287E-01    8.7628115030244280E-01
Br   -1.4398862941250517E-02    1.3316222705538330E-01    8.7050653986411664E-01
Br    1.1851720171385252E-01    1.3204841688405669E-01    7.6419102717915399E-01
Br    1.4255725112932152E-01   -4.3253082754373630E-03    8.7862292100046846E-01
Cs    2.3696148537041037E-01    2.0669420277337553E-02    7.4906443077868690E-01
Si    3.6191956433372569E-01    1.1642783658911804E-01    8.8983574001261034E-01
Br    2.5078470897624133E-01    1.2110249540679294E-01    8.9540751374726057E-01
Br    3.6471200921869057E-01    1.4107752116612637E-01    7.4859300553938790E-01
Br    3.6015243903381899E-01    6.1206108178235019E-03    8.7410259188241812E-01
Cs    5.0048752175010713E-01    2.2810953737512990E-02    7.5784808759039535E-01
Si    6.3210636222332661E-01    1.2957267388483343E-01    8.7891242539055292E-01
Br    5.0758739242779494E-01    1.0921865436024826E-01    8.8521347187309918E-01
Br    6.3939611313141109E-01    1.1338881384713535E-01    7.5534104894759235E-01
Br    6.2656409842340177E-01   -5.3103482160023379E-03    8.8677112017912596E-01
Cs    7.4887626391120010E-01   -1.3986839341328780E-02    7.6277203240724356E-01
Si    8.7918270160584044E-01    1.2503301506235645E-01    8.9917800604073794E-01
Br    7.5794721742472204E-01    1.3149070050508591E-01    8.8562045158264890E-01
Br    8.6874310989216907E-01    1.2607886786576608E-01    7.4631669049230009E-01
Br    8.7677945547399783E-01    9.9099193987727072E-03    8.7987457933233171E-01
Cs   -1.5495471214361689E-03    2.5142897564663241E-01    7.4898011074378368E-01
Si    1.2294769001837659E-01    3.9307038183109883E-01    8.6115421839043205E-01
Br    1.0634200529383695E-02    3.6719430994712737E-01    8.7963340569451798E-01
Br    1.1744856042024336E-01    3.8156806915684072E-01    7.5075615595391465E-01
Br    1.3137392860814454E-01    2.5591550627887311E-01    8.7601104919620287E-01
Cs    2.4282818953529786E-01    2.4402617639692570E-01    7.5744973835374885E-01
Si    3.7590152658450982E-01    3.6142760333604307E-01    8.6710124716750236E-01
Br    2.5666968100178472E-01    3.7543103415729945E-01    8.5773648913386547E-01
Br    3.7064215652758908E-01    3.5993810298215378E-01    7.3265467408083484E-01
Br    3.7731666776007838E-01    2.5034382280753431E-01    8.8718138855505579E-01
Cs    5.0168949495047011E-01    2.3594468670437091E-01    7.6351822025102356E-01
Si    6.1953866757584664E-01    3.8811105752148334E-01    8.7579946113774132E-01
Br    5.0925384062184798E-01    3.6808600413308096E-01    8.5782177383749314E-01
Br    6.3198354379886945E-01    3.7170915781085939E-01    7.3782708707744948E-01
Br    6.2171446149474774E-01    2.3716129148536072E-01    8.7372123679705183E-01
Cs    7.4734429902258870E-01    2.5443873424896424E-01    7.4718315859623330E-01
Si    8.7148721153779407E-01    3.7700349892070756E-01    8.6147238140714222E-01
Br    7.5743708555057443E-01    3.9400921898456148E-01    8.6245978350519725E-01
Br    8.6980651621923188E-01    3.8723881981031988E-01    7.4622674777084508E-01
Br    8.7268705454345830E-01    2.6051016787777243E-01    8.6604320419793068E-01
Cs   -1.6681967028740155E-02    4.9389887205743777E-01    7.5838064669778427E-01
Si    1.2679769352476808E-01    6.1963611565430754E-01    8.7446630606951747E-01
Br   -8.1377603775939552E-03    6.0812510121393182E-01    8.7292996655805466E-01
Br    1.1559905109124539E-01    6.1912253511586179E-01    7.5760813278267936E-01
Br    1.3177264268392452E-01    5.0127718353827766E-01    8.7459803195609220E-01
Cs    2.6656047810201466E-01    4.9764597948003386E-01    7.5804858375094963E-01
Si    3.8172587919566714E-01    6.2241535603023290E-01    8.7286687924366368E-01
Br    2.5993210134523581E-01    6.1327999596470995E-01    8.7501597894822269E-01
Br    3.6816256422171972E-01    6.2935586239901498E-01    7.5939601993161987E-01
Br    3.8289960068506407E-01    5.0971040118973210E-01    8.7858217161723795E-01
Cs    5.0277532652630208E-01    5.1654223229343232E-01    7.4598313110895353E-01
Si    6.2650593458119208E-01    6.2830842988275859E-01    8.8452911893327102E-01
Br    5.0338233708206570E-01    6.2601505901297150E-01    8.9162789049392432E-01
Br    6.2749889456825991E-01    6.2541333204312222E-01    7.2790157458363536E-01
Br    6.2536171251376360E-01    4.9258434689711272E-01    8.6967397649124434E-01
Cs    7.4697749932203161E-01    5.0810949983011044E-01    7.4688763900573885E-01
Si    8.6312362840996570E-01    6.2307929502846371E-01    8.8322746534437158E-01
Br    7.4234382985333358E-01    6.3039251830939569E-01    8.7324005223243795E-01
Br    8.5740170630024737E-01    6.3445178845024419E-01    7.4118301701256406E-01
Br    8.5989345883683543E-01    5.1780582612255965E-01    8.7750990028881248E-01
Cs    3.8555522391283559E-03    7.4691175377198771E-01    7.4715993160166783E-01
Si    1.3107804275409002E-01    8.7156767279063663E-01    8.5963904436118199E-01
Br    1.3358808390508847E-02    8.5726748268332531E-01    8.6376801334519626E-01
Br    1.3540424949929827E-01    8.7900045688256279E-01    7.5038664322040005E-01
Br    1.3684828892396142E-01    7.2975164152709016E-01    8.7534329713076486E-01