 # Version information for this restart file 
 # current date 2021-09-13 11:29:25.813
 # current working dir /projectsp/f_rcr78_1/MW/Hybrid_Perovskite/CsSiBr3/4x4/500K/WC
 # Program compiled at                              Fri Sep 13 14:50:45 EDT 2019
 # Program compiled on                             slepner083.amarel.rutgers.edu
 # Program compiled for                                                    local
 # Source code revision number                                       git:e35496b
 &GLOBAL
   PRINT_LEVEL  LOW
   PROJECT_NAME CSB_WC
   RUN_TYPE  MD
   WALLTIME 47:58:00
 &END GLOBAL
 &MOTION
   &MD
     ENSEMBLE  NVT
     STEPS  5000
     TIMESTEP     9.9999999999999989E-01
     STEP_START_VAL  5526
     TIME_START_VAL     5.5259999999994961E+03
     ECONS_START_VAL    -4.1271290342870643E+03
     TEMPERATURE     5.0000000000000000E+02
     COMVEL_TOL     1.0000000000000000E-08
     &THERMOSTAT
       TYPE  CSVR
       &CSVR
         TIMECON     9.9999999999999986E+01
         &THERMOSTAT_ENERGY
              -8.3899217035989704E-01
         &END THERMOSTAT_ENERGY
         &RNG_INIT
Wiener process for Thermostat # 1        1 F T F  -2.4598534704311628E+00        3148678880.0        3453084995.0        2668277562.0        3338881353.0        1758913072.0        1713382685.0             12345.0             12345.0             12345.0             12345.0             12345.0             12345.0             12345.0             12345.0             12345.0             12345.0             12345.0             12345.0
         &END RNG_INIT
       &END CSVR
     &END THERMOSTAT
     &AVERAGES  T
       &RESTART_AVERAGES
         ITIMES_START  1
         AVECPU     2.4230416874972852E+02
         AVEHUGONIOT     0.0000000000000000E+00
         AVETEMP_BARO     0.0000000000000000E+00
         AVEPOT    -4.1271231501424727E+03
         AVEKIN     7.5243795718438489E-01
         AVETEMP     4.9655346081235058E+02
         AVEKIN_QM     0.0000000000000000E+00
         AVETEMP_QM     0.0000000000000000E+00
         AVEVOL     7.0919701531041777E+04
         AVECELL_A     4.1392561214727309E+01
         AVECELL_B     4.1392561214727309E+01
         AVECELL_C     4.1392561214727309E+01
         AVEALPHA     9.0000000000000000E+01
         AVEBETA     9.0000000000000000E+01
         AVEGAMMA     9.0000000000000000E+01
         AVE_ECONS     3.3326465947746070E-01
         AVE_PRESS     0.0000000000000000E+00
         AVE_PXX     0.0000000000000000E+00
       &END RESTART_AVERAGES
     &END AVERAGES
   &END MD
   &PRINT
     &TRAJECTORY  SILENT
       &EACH
         MD  1
       &END EACH
     &END TRAJECTORY
     &VELOCITIES  SILENT
       &EACH
         MD  1
       &END EACH
     &END VELOCITIES
     &FORCES  SILENT
       &EACH
         MD  1
       &END EACH
     &END FORCES
     &STRESS  SILENT
       &EACH
         MD  1
       &END EACH
     &END STRESS
     &RESTART  SILENT
       BACKUP_COPIES  3
       &EACH
         MD  1
       &END EACH
     &END RESTART
     &RESTART_HISTORY  SILENT
       &EACH
         MD  5
       &END EACH
     &END RESTART_HISTORY
   &END PRINT
 &END MOTION
 &FORCE_EVAL
   METHOD  QS
   &DFT
     BASIS_SET_FILE_NAME BASIS_MOLOPT
     POTENTIAL_FILE_NAME GTH_POTENTIALS
     MULTIPLICITY  1
     CHARGE  0
     &SCF
       MAX_SCF  30
       EPS_SCF     1.0000000000000001E-05
       SCF_GUESS  ATOMIC
       &OT  T
         MINIMIZER  DIIS
         PRECONDITIONER  FULL_SINGLE_INVERSE
       &END OT
       &OUTER_SCF  T
         EPS_SCF     1.0000000000000001E-05
         MAX_SCF  10
       &END OUTER_SCF
       &PRINT
         &RESTART  OFF
         &END RESTART
       &END PRINT
     &END SCF
     &QS
       EPS_DEFAULT     1.0000000000000000E-10
       EXTRAPOLATION  ASPC
       METHOD  GPW
     &END QS
     &MGRID
       NGRIDS  4
       CUTOFF     4.0000000000000000E+02
       REL_CUTOFF     9.0000000000000000E+01
     &END MGRID
     &XC
       DENSITY_CUTOFF     1.0000000000000000E-10
       GRADIENT_CUTOFF     1.0000000000000000E-10
       TAU_CUTOFF     1.0000000000000000E-10
       &XC_FUNCTIONAL  NO_SHORTCUT
         &PBE  T
         &END PBE
       &END XC_FUNCTIONAL
     &END XC
     &POISSON
       PERIODIC  XYZ
     &END POISSON
     &LOCALIZE  T
       USE_HISTORY  T
       EPS_LOCALIZATION     1.0000000000000001E-05
       METHOD  JACOBI
       &PRINT
         &WANNIER_CENTERS  SILENT
           IONS+CENTERS  T
         &END WANNIER_CENTERS
         &WANNIER_SPREADS  SILENT
         &END WANNIER_SPREADS
       &END PRINT
     &END LOCALIZE
     &REAL_TIME_PROPAGATION
       INITIAL_WFN  SCF_WFN
     &END REAL_TIME_PROPAGATION
     &PRINT
       &MO_CUBES  SILENT
         WRITE_CUBE  F
         NLUMO  4
         NHOMO  4
         &EACH
           MD  10
         &END EACH
       &END MO_CUBES
       &E_DENSITY_CUBE  OFF
       &END E_DENSITY_CUBE
     &END PRINT
   &END DFT
   &SUBSYS
     &CELL
       A     2.1904000000000000E+01    0.0000000000000000E+00    0.0000000000000000E+00
       B     0.0000000000000000E+00    2.1904000000000000E+01    0.0000000000000000E+00
       C     0.0000000000000000E+00    0.0000000000000000E+00    2.1904000000000000E+01
       MULTIPLE_UNIT_CELL  1 1 1
     &END CELL
     &COORD
Cs   -8.1173404712779756E-03   -1.5837792657817963E-02    8.0373765625856367E-03
Si    1.1962503583471613E-01    1.2186705103308902E-01    1.2577546490903707E-01
Br    1.1256441881923608E-02    1.3331429413969337E-01    1.3978237639794719E-01
Br    1.0994886604363555E-01    9.8105718685188026E-02    8.9990295338213139E-03
Br    1.3323285409251850E-01    1.4034444625239664E-02    1.4820465282285075E-01
Cs    2.4216631559464205E-01    6.6827180558459969E-03    2.5117071400921663E-03
Si    3.5676212480034247E-01    1.4460623854937688E-01    1.3022974690544392E-01
Br    2.4830301148915532E-01    1.4677646840460434E-01    1.0637243292961146E-01
Br    3.9025128581978974E-01    1.1615631641125412E-01   -3.2101638123664530E-03
Br    3.7477559032598146E-01    3.5152560816554858E-03    1.1780131135572550E-01
Cs    5.1495790705663780E-01    1.2603427793345957E-02    1.4729810218473350E-02
Si    6.2543588570458064E-01    1.2962114380612463E-01    1.3328117681336066E-01
Br    5.0929312838430285E-01    1.0764904111841191E-01    1.3452769504934339E-01
Br    6.3761117783059329E-01    1.1033184450600175E-01    1.4877098317671847E-02
Br    6.2348779553089295E-01   -1.9614874296647287E-03    1.3444880631972383E-01
Cs    7.5244389671832734E-01   -6.9175383005064218E-04   -8.4365897618261208E-03
Si    8.6698360427239962E-01    1.3751952102287823E-01    1.3735866865773547E-01
Br    7.5107761303478948E-01    1.2635663406212716E-01    1.5023579496026221E-01
Br    8.7785930346357710E-01    1.4312875692579941E-01    9.5284187798777929E-03
Br    8.6115288394958722E-01    2.7867091924742011E-03    1.3127007480016012E-01
Cs   -9.5702473744283900E-04    2.4926409756762630E-01    3.1571724385090513E-03
Si    1.1755673791774351E-01    3.8129995169482744E-01    1.0574362509577379E-01
Br    4.4410122600231734E-03    3.7945415221339540E-01    1.1571477061638989E-01
Br    1.3427566867632934E-01    4.0128616318904647E-01   -3.5376065371845161E-03
Br    1.2379884749019965E-01    2.6328800316033318E-01    9.2237217976125260E-02
Cs    2.5530318554091558E-01    2.9425818629073741E-01   -4.6419592906900781E-03
Si    3.5624185638773448E-01    3.8410887268700411E-01    1.3844182123481136E-01
Br    2.5142115063158055E-01    3.7927133063850577E-01    1.4035408802703642E-01
Br    3.8298236842838734E-01    3.8871291284709553E-01   -1.4886186874376687E-02
Br    3.8134307196105616E-01    2.5247662812584876E-01    1.1974415927607267E-01
Cs    5.2512297612142922E-01    2.4575125220716590E-01    3.6578645777852452E-03
Si    6.1190579174555559E-01    3.8074636867735828E-01    1.3128198550702272E-01
Br    5.0124130539709699E-01    3.7313476850858618E-01    1.3463084078129481E-01
Br    6.2979177321677049E-01    3.7311483491555975E-01   -4.4732904729427496E-03
Br    6.1495407976254290E-01    2.5051411179256761E-01    1.3779130082655736E-01
Cs    7.4381545256929993E-01    2.5377047102352762E-01    7.7712798779635724E-03
Si    8.6358863731821145E-01    3.7635948189288493E-01    1.2182835325403668E-01
Br    7.4581804046516809E-01    3.6494015079660908E-01    1.3550344141789916E-01
Br    8.6932342599172563E-01    3.6240115881714086E-01    9.9262268673058224E-03
Br    8.7880842120903391E-01    2.4756901763886249E-01    1.3026603173206872E-01
Cs   -9.9178994402837097E-03    5.0675550950294423E-01    2.6246401904023433E-03
Si    1.4147583917798781E-01    6.2919186646506331E-01    1.2077686038207973E-01
Br   -3.6721945727643205E-03    6.1093631917001834E-01    1.3243357245568960E-01
Br    1.3463646749463068E-01    6.2347175743026562E-01    4.8827821241862477E-03
Br    1.4058810580237749E-01    5.1408834623615240E-01    1.3655504812632496E-01
Cs    2.4569534298066978E-01    5.1441716967202678E-01    2.7556563291147250E-03
Si    3.7891204461290745E-01    6.3549519446270997E-01    1.1962710471360080E-01
Br    2.5273510034475838E-01    6.2574398299799472E-01    1.1933198200790693E-01
Br    3.8473885112499773E-01    6.1039070806043616E-01    1.2594572676142822E-02
Br    3.6246681540317666E-01    5.0319635980603916E-01    1.3958561152708629E-01
Cs    5.0311468036711504E-01    5.0146440629148392E-01   -3.1994503686359108E-03
Si    6.2793852438403941E-01    6.3365953718167400E-01    1.2810392983858612E-01
Br    4.9854167751229495E-01    6.3226433641357827E-01    1.1849949329137532E-01
Br    6.3091987809710603E-01    6.1685017195916969E-01   -1.8013600129502276E-03
Br    6.1192256148609325E-01    4.9712752683456490E-01    1.2387035727291267E-01
Cs    7.5716934374236344E-01    4.9177962938420794E-01   -1.7544036378108997E-03
Si    8.8280952261483847E-01    6.4196938191736252E-01    1.3302212036702307E-01
Br    7.4556053368596653E-01    6.2726019241117692E-01    1.2928138247478074E-01
Br    8.7394872881448948E-01    6.2632785250058132E-01   -1.1914266760460925E-02
Br    8.6463348366317294E-01    4.8272759851577263E-01    1.0865524253473950E-01
Cs    2.4181381951264565E-03    7.3092129721878485E-01   -2.1095562003610187E-02
Si    1.2677082458010852E-01    8.7235400029705923E-01    1.0782327345885422E-01
Br    1.3009601687797709E-02    8.8291915909116347E-01    1.2335296625622097E-01
Br    1.2934092249669021E-01    8.5974054116966092E-01   -1.0861668860371496E-02
Br    1.2142327575334734E-01    7.5704707283251504E-01    1.2445344902497890E-01
Cs    2.5252706504666828E-01    7.4386865621399012E-01   -1.2825244909286866E-02
Si    3.7085128177107246E-01    8.8661722565474166E-01    1.1274731564043997E-01
Br    2.5776094933236587E-01    8.6908331029566555E-01    9.4726786778620148E-02
Br    3.7887749393287234E-01    8.7764679437666460E-01   -1.4665792585020962E-03
Br    3.7383450715875949E-01    7.5244863163029818E-01    1.1093207850399112E-01
Cs    4.9242870706776459E-01    7.6016593222690232E-01   -5.5503055782935209E-03
Si    6.1206603672457993E-01    8.9005788867144198E-01    1.2610320337248934E-01
Br    5.0436638520396915E-01    8.7123334968700172E-01    1.3605446673635860E-01
Br    6.3471949254056625E-01    8.8457071752352845E-01   -1.6694173126311079E-02
Br    6.3970448043487804E-01    7.3813125141777569E-01    1.1358735519104983E-01
Cs    7.5284632741812152E-01    7.5799348130745736E-01   -1.6229691590106746E-02
Si    8.7179059815721738E-01    8.8417489595219867E-01    1.4414933173714992E-01
Br    7.5454395095594207E-01    8.7370258255408606E-01    1.1680933256149349E-01
Br    8.8562147694946636E-01    8.6754576456884136E-01   -1.6453344412140563E-02
Br    8.8821111684392928E-01    7.5700238054667601E-01    1.2703993881568962E-01
Cs   -6.0035076593401892E-03    2.9604109119066970E-03    2.5510773926926372E-01
Si    1.2037188584971635E-01    1.2148945558668595E-01    3.7022838648836676E-01
Br    5.0891911588812752E-03    1.1118538048092495E-01    3.6132094425796879E-01
Br    1.3744915771113725E-01    1.2672384445637511E-01    2.6163760101848071E-01
Br    1.2897728279144025E-01    1.3972781526303137E-02    3.7469647765640396E-01
Cs    2.5709721906332628E-01    3.3441280277587246E-03    2.6786127486182287E-01
Si    3.6025295492865173E-01    1.2842914810423398E-01    3.8298090800428841E-01
Br    2.4802970084090828E-01    1.2698504854025741E-01    3.9417410392199348E-01
Br    3.5807806269586651E-01    1.2485525512540557E-01    2.4318547845703870E-01
Br    3.5974671584018936E-01   -5.6631447773057685E-03    3.8998893456563843E-01
Cs    4.7744350435061667E-01    1.5785751361494120E-02    2.5929875030728727E-01
Si    6.2616451248371285E-01    1.0649260256043312E-01    3.8524204667248674E-01
Br    5.1126567059482286E-01    1.1300408256120931E-01    3.8589439577610479E-01
Br    6.4164172045926604E-01    1.0705048267638491E-01    2.7338230832442445E-01
Br    6.0966887862798191E-01   -6.2939628633407263E-03    4.0659796302287154E-01
Cs    7.4587950403873859E-01   -1.3054643752859262E-02    2.4784060846658973E-01
Si    8.6944498694193961E-01    1.3702429473422001E-01    3.8146312851089498E-01
Br    7.5393348273923533E-01    1.2532042157755041E-01    3.8615311315762735E-01
Br    8.7839234929816212E-01    1.2254730328566284E-01    2.5170257586686279E-01
Br    8.8120568447233827E-01   -2.1727594073859277E-03    3.8850555279775711E-01
Cs   -4.8864230002900583E-04    2.4310095915693652E-01    2.5779657620420049E-01
Si    1.2502797472270410E-01    3.7418717999175438E-01    3.6474887215216234E-01
Br   -1.3589022569569106E-02    3.6419120551800810E-01    3.7785898061792644E-01
Br    1.1499322528756625E-01    3.7626697496848854E-01    2.4411808244454325E-01
Br    1.1498674262689919E-01    2.6023357144813775E-01    3.7609188531915538E-01
Cs    2.4755908213995295E-01    2.6041654628272631E-01    2.5484989668692803E-01
Si    3.8469508977308137E-01    3.7556827984172092E-01    3.8641761121116408E-01
Br    2.4305964718941003E-01    3.7645294147254071E-01    3.6964229965817408E-01
Br    3.7416564468281943E-01    3.6427702221575292E-01    2.4295171884847183E-01
Br    3.7474016516067854E-01    2.4171553510622615E-01    3.7068299506708019E-01
Cs    4.8970342720064791E-01    2.4574437009489614E-01    2.4197358506991126E-01
Si    6.3587567267116529E-01    3.8167923083883587E-01    3.8021250623592112E-01
Br    4.9438479156555037E-01    3.5121394672589457E-01    3.9847734951097619E-01
Br    6.1687533321049381E-01    3.7586473170810825E-01    2.3807114949122943E-01
Br    6.3018164620550432E-01    2.3554040772918330E-01    3.6862961687601925E-01
Cs    7.4154375668878558E-01    2.3721774871910953E-01    2.5643842961508873E-01
Si    8.7467157168567311E-01    3.8513567943756061E-01    3.6343563706012733E-01
Br    7.4758277326008027E-01    3.8564206041304083E-01    3.6231884387609575E-01
Br    8.6873605846351976E-01    3.8798545068263107E-01    2.4911660109182768E-01
Br    8.7339671606526337E-01    2.5198909092448180E-01    3.6704971293317673E-01
Cs   -6.2337357818906128E-03    5.0623158482625985E-01    2.6668885921311791E-01
Si    1.2948292464899133E-01    6.2556732526092396E-01    3.8640965285626194E-01
Br    1.4084756061668140E-02    6.3017402876934470E-01    3.7670813820091853E-01
Br    1.3802365743653008E-01    6.3660272643530957E-01    2.6631291939942486E-01
Br    1.2715258492404302E-01    5.1159602231539458E-01    3.8444536303754789E-01
Cs    2.5278975190432024E-01    5.0128720118311731E-01    2.6210532433579992E-01
Si    3.7016454145270811E-01    6.2765435887250720E-01    3.7159266399067831E-01
Br    2.5386860756445601E-01    6.1331354626067081E-01    3.8552784024168962E-01
Br    3.8265809363841913E-01    6.3686999615814199E-01    2.5656834149621216E-01
Br    3.9162820874717535E-01    4.8734214431133638E-01    3.7346534310275020E-01
Cs    5.0102385177414155E-01    4.8530681626617539E-01    2.5378655040465148E-01
Si    6.2233462527626326E-01    6.3019081363611018E-01    3.6601751544613043E-01
Br    5.0473648174517016E-01    6.2136533559038354E-01    3.8839825170940440E-01
Br    6.0092573413208950E-01    6.3827582862245225E-01    2.3267503883924998E-01
Br    6.2829285469893881E-01    5.0368437432568836E-01    3.4937617875492971E-01
Cs    7.4767832277508084E-01    5.0585719678605534E-01    2.4273667869286253E-01
Si    8.7772397051579010E-01    6.2975465791826135E-01    3.7583850053532231E-01
Br    7.6050979776337124E-01    6.4200464254932987E-01    3.6068134807414193E-01
Br    8.7907758403866554E-01    6.3212743150597783E-01    2.3821649607248707E-01
Br    8.8402000893154120E-01    4.9875771620578774E-01    3.6067837912987744E-01
Cs    1.2382201150460338E-02    7.3904525647334773E-01    2.5759328409978016E-01
Si    1.4107324296313870E-01    8.7334487562036078E-01    3.7070546133610022E-01
Br   -7.6763687224277290E-03    8.8183250648235456E-01    3.8731520099995403E-01
Br    1.3802357515428224E-01    8.8128098421013124E-01    2.5707820569337958E-01
Br    1.1286909384937906E-01    7.5987086491930189E-01    3.8170325236783292E-01
Cs    2.4777537196145111E-01    7.5518823562369042E-01    2.4401871581660950E-01
Si    3.7099817289470172E-01    8.7346635651970195E-01    3.7906083803630630E-01
Br    2.5132868436532724E-01    8.5206663259547599E-01    3.9122209077629605E-01
Br    3.6546086923006149E-01    8.6561933206151276E-01    2.6063306006309117E-01
Br    3.7880141740331608E-01    7.4615761812188119E-01    3.7842959947179838E-01
Cs    4.8976002276209651E-01    7.5992350833350719E-01    2.4825123403488930E-01
Si    6.2489182150067102E-01    8.6767751741137933E-01    3.7826128195014636E-01
Br    4.9388480732950679E-01    8.7640913427734968E-01    3.9431826501544859E-01
Br    6.2945004685085271E-01    8.6207028078998105E-01    2.4133190214138944E-01
Br    6.2700041576324494E-01    7.4453759060794322E-01    3.6342556531064568E-01
Cs    7.5752660707534314E-01    7.5633059698712302E-01    2.3790003697399945E-01
Si    8.7347491969320490E-01    8.8700903616707683E-01    3.8031255464750741E-01
Br    7.3883794657038815E-01    8.8722363380863312E-01    3.8750212156104602E-01
Br    8.6740785811186483E-01    8.7112382885906359E-01    2.4997970325504695E-01
Br    8.8456003311973930E-01    7.4475571107749450E-01    3.7369462090712752E-01
Cs    1.0972809497560590E-02   -2.2322744420902728E-02    5.1524145180438452E-01
Si    1.0992657468883152E-01    1.3103712496278877E-01    6.2261021105650349E-01
Br   -8.9955337458264787E-03    1.1943859373399562E-01    6.3522052362010795E-01
Br    8.8229097092597145E-02    1.2824608674439766E-01    5.1213359388673307E-01
Br    1.2534221087990288E-01    2.0403046371313061E-02    6.2248930895589316E-01
Cs    2.6499693676740271E-01    1.5267831369378596E-03    5.1671859981031865E-01
Si    3.6225769354514703E-01    1.4344960208616331E-01    6.3722549206091161E-01
Br    2.4935868821881407E-01    1.2865819358989372E-01    6.1139913464608198E-01
Br    3.7752281918565278E-01    1.3374936255392264E-01    4.9789097651551906E-01
Br    3.6854570431498457E-01    1.9066569274272128E-03    6.2471640620418378E-01
Cs    4.7680455226653823E-01   -1.0357465255279525E-02    5.0437467855162055E-01
Si    6.4074520893567144E-01    1.2658547818566365E-01    6.1876319807417002E-01
Br    5.0618278062327726E-01    1.3106484870119084E-01    6.3468155211265753E-01
Br    6.3876165339910163E-01    1.2251103922432259E-01    5.1024093262646764E-01
Br    5.9557141840505212E-01   -3.7876969849115422E-03    6.1277996124416823E-01
Cs    7.5778525572864808E-01    5.1476092077855006E-03    4.9860219799394212E-01
Si    8.6774485924819544E-01    1.3270773228018176E-01    6.2633694806409779E-01
Br    7.5159372101682076E-01    1.1518381014409253E-01    6.3845652022421451E-01
Br    8.7920449413601620E-01    1.1911902877096468E-01    5.0867408723661067E-01
Br    8.7550038628481830E-01   -2.3970405597965637E-03    6.2288058966686244E-01
Cs   -1.4161210476260389E-02    2.5169222805452979E-01    4.9400428779146843E-01
Si    1.1093700945653918E-01    3.7234885282231595E-01    6.1335242200531515E-01
Br    8.1144534463760704E-03    3.8963368295865874E-01    6.1316685231672974E-01
Br    1.2586222925350443E-01    3.7658698583531802E-01    4.9782433836090861E-01
Br    1.1073298358866224E-01    2.6059654159229989E-01    6.2411322161355720E-01
Cs    2.4439759518634424E-01    2.6432552128804948E-01    4.9399168807483906E-01
Si    3.6186595816342421E-01    3.7858223379267758E-01    6.2736676685515913E-01
Br    2.5520543283680786E-01    3.7404691436637544E-01    6.3127794461490128E-01
Br    3.6313105467405082E-01    3.7166223236076312E-01    4.9217749936051880E-01
Br    3.7055131907852001E-01    2.5343669991760481E-01    6.2383176269868756E-01
Cs    5.0105864333312922E-01    2.3582088333162707E-01    5.0237065788875990E-01
Si    6.0962284778911768E-01    3.7441428512046804E-01    6.2639796266680148E-01
Br    5.0183297257362924E-01    3.7611354716342971E-01    6.3616551265681509E-01
Br    6.3717443722079270E-01    3.7494251752956559E-01    4.8860208412482037E-01
Br    6.3952906354873573E-01    2.4276982151692839E-01    6.2595536718492784E-01
Cs    7.5381365513225140E-01    2.4422600324472274E-01    5.0054040557099755E-01
Si    8.6515941038231425E-01    3.7625795024577313E-01    6.1736983567349868E-01
Br    7.5382530060813480E-01    3.6859522647614001E-01    6.1429815044413927E-01
Br    8.6620498389320710E-01    3.8926404791303815E-01    5.0685710360451819E-01
Br    8.7568852770497230E-01    2.4976159725687419E-01    6.2597166084392519E-01
Cs   -5.2747266453785271E-03    4.8507013070915178E-01    4.8221092350282074E-01
Si    1.3175775326419187E-01    6.0817316753275119E-01    6.1879599334578206E-01
Br    1.9220168528351522E-02    5.9330324775504939E-01    6.2505517372188235E-01
Br    1.2716666700291046E-01    6.2072546603028556E-01    5.0819079758326180E-01
Br    1.4333829920563071E-01    4.9388584490403886E-01    6.1879996772742529E-01
Cs    2.5818215914610793E-01    5.1030004878129298E-01    5.0747115713171431E-01
Si    3.6411006978757654E-01    6.3833109444664893E-01    6.2478554651336149E-01
Br    2.5872860228915684E-01    6.3746062550405269E-01    6.2753975346973057E-01
Br    3.7026522263730033E-01    6.4012273488416260E-01    5.0891286450006989E-01
Br    3.7603978605704480E-01    5.0160669726752405E-01    6.2296823143957347E-01
Cs    5.0322154035400357E-01    5.0957091866858906E-01    4.9390352856659914E-01
Si    6.3494067837042689E-01    6.4491921482660231E-01    6.2334003964045759E-01
Br    5.2175229448204030E-01    6.3842756785956667E-01    6.1962184036275825E-01
Br    6.2286821191450448E-01    6.2496279867695725E-01    4.7881984703230973E-01
Br    6.2081160034766991E-01    4.8208213159853747E-01    6.2431949830035982E-01
Cs    7.5218042271890939E-01    5.1282302673185987E-01    4.8475657518446869E-01
Si    8.7554643295574375E-01    6.2266373254940344E-01    6.2613662779812629E-01
Br    7.6705169391078809E-01    6.3002949746564807E-01    6.0463027681185899E-01
Br    8.8509381199207471E-01    6.1386407990793501E-01    4.8319688879524852E-01
Br    8.5747705736526558E-01    4.9367360643399810E-01    6.1596319157344670E-01
Cs   -2.4522832705224291E-03    7.3210322815543838E-01    5.1598800974024139E-01
Si    1.1604557664706867E-01    8.7140200716026406E-01    6.1462796388011209E-01
Br   -7.1933374698091295E-04    8.6580442582157169E-01    6.3836269370511356E-01
Br    1.2305713308356558E-01    8.6768800371899713E-01    5.0102863573083423E-01
Br    1.2248447421669023E-01    7.6103908778705942E-01    6.2142282051624231E-01
Cs    2.5537915120633442E-01    7.5293934465485823E-01    5.0598077749352954E-01
Si    3.6511204245062417E-01    8.8385611964947586E-01    6.2715624683607873E-01
Br    2.5683244007044981E-01    8.7384803884132656E-01    6.2298924855580518E-01
Br    3.6529987742333186E-01    8.6740293092129916E-01    4.9585526476784031E-01
Br    3.8686143098935732E-01    7.4658970931851620E-01    6.3120080585855209E-01
Cs    5.0362718639817461E-01    7.5793438913559064E-01    5.1104466672683890E-01
Si    6.0711730451319734E-01    8.8620920421227667E-01    6.2672922610441195E-01
Br    4.9422588190276290E-01    8.6944946894806230E-01    6.2519713166574842E-01
Br    6.2276524590726756E-01    8.5354946518860453E-01    4.8709147665515712E-01
Br    6.3951760213252429E-01    7.5860642834563052E-01    6.4216730165232727E-01
Cs    7.7170224529473019E-01    7.5219824308218464E-01    4.9627960816582439E-01
Si    8.5997119319608484E-01    8.8828523366924816E-01    6.2456703200085506E-01
Br    7.4848518236928441E-01    8.7791232086449866E-01    6.2420832808630633E-01
Br    8.7522118392585568E-01    8.7739110134003540E-01    4.9524410643812006E-01
Br    8.8317085360792502E-01    7.4109594525971167E-01    6.2995433544991031E-01
Cs    5.3678398773143905E-03   -1.2396296903985476E-02    7.5806512434285145E-01
Si    1.1309008878435728E-01    1.4811190053587323E-01    8.7612677396366057E-01
Br   -1.4382278325696858E-02    1.3323101271060239E-01    8.7043001487124672E-01
Br    1.1855298951057386E-01    1.3211608900480890E-01    7.6395997857487985E-01
Br    1.4256923896789633E-01   -4.4898699510938500E-03    8.7864903381906978E-01
Cs    2.3697575924777350E-01    2.0661221887786841E-02    7.4910059015249797E-01
Si    3.6188644895041916E-01    1.1634966987924603E-01    8.8968142345032331E-01
Br    2.5082476228488265E-01    1.2128105685179894E-01    8.9551500700252162E-01
Br    3.6473532806693232E-01    1.4090154953996439E-01    7.4835686499335208E-01
Br    3.6016326850319935E-01    5.9471257026428729E-03    8.7408971017276238E-01
Cs    5.0051808797395592E-01    2.2772921746511052E-02    7.5777721934044551E-01
Si    6.3202826776864895E-01    1.2929907529891313E-01    8.7881150253930274E-01
Br    5.0768406002551514E-01    1.0926959432548761E-01    8.8503130282250819E-01
Br    6.3954558141877338E-01    1.1336469414953501E-01    7.5524523896719398E-01
Br    6.2653311686992719E-01   -5.1163552487982229E-03    8.8677077479535138E-01
Cs    7.4897252659542046E-01   -1.3994753618064517E-02    7.6285589314211066E-01
Si    8.7921285509521818E-01    1.2527840256664416E-01    8.9930146275750633E-01
Br    7.5791684904661882E-01    1.3147829221440582E-01    8.8550653949398561E-01
Br    8.6873932811952825E-01    1.2612192257079569E-01    7.4640106028479625E-01
Br    8.7677876733010340E-01    9.9141741297501529E-03    8.7972364690335425E-01
Cs   -1.5051816792729133E-03    2.5155549916489400E-01    7.4904035852302231E-01
Si    1.2287151768544256E-01    3.9307637423503111E-01    8.6121474270778697E-01
Br    1.0543635675263617E-02    3.6692968652464225E-01    8.7959677589448815E-01
Br    1.1754205808888230E-01    3.8164991377432278E-01    7.5078077422326961E-01
Br    1.3122890526646136E-01    2.5602350736567925E-01    8.7604155770194869E-01
Cs    2.4282176922543780E-01    2.4398857819760858E-01    7.5739958183422063E-01
Si    3.7558674352253524E-01    3.6133840561411090E-01    8.6645876502510666E-01
Br    2.5664115606382804E-01    3.7563427014932399E-01    8.5763862308469085E-01
Br    3.7050332025828997E-01    3.5992358418774789E-01    7.3260052046075985E-01
Br    3.7745549506873260E-01    2.5041731007196766E-01    8.8719725961659746E-01
Cs    5.0166924878586916E-01    2.3584692381253769E-01    7.6362250091105988E-01
Si    6.1966181854407631E-01    3.8803030878829303E-01    8.7590530917921694E-01
Br    5.0930430186112885E-01    3.6822015545360859E-01    8.5778541482400517E-01
Br    6.3190070338709270E-01    3.7157394101395852E-01    7.3785787604137620E-01
Br    6.2159192489340431E-01    2.3738997483194710E-01    8.7399626155280152E-01
Cs    7.4737797386372018E-01    2.5441737737379611E-01    7.4714955919676818E-01
Si    8.7163669547575795E-01    3.7711506981959825E-01    8.6132562016743219E-01
Br    7.5739333109569595E-01    3.9382283480290337E-01    8.6246583836142565E-01
Br    8.6987738756232957E-01    3.8711341835616991E-01    7.4635618416560978E-01
Br    8.7269123830104789E-01    2.6052330110417282E-01    8.6596335984127271E-01
Cs   -1.6650447726986858E-02    4.9393816738524771E-01    7.5837127545687644E-01
Si    1.2688824259981601E-01    6.1978777688095188E-01    8.7444377150480679E-01
Br   -8.1992052787353796E-03    6.0809867932506301E-01    8.7290190901885645E-01
Br    1.1566142139574923E-01    6.1896595105626839E-01    7.5751147545174291E-01
Br    1.3178273795600004E-01    5.0120638243778948E-01    8.7458843653164198E-01
Cs    2.6641161806391345E-01    4.9765097994800267E-01    7.5813574717939169E-01
Si    3.8145896431815834E-01    6.2261373359948535E-01    8.7281679697380754E-01
Br    2.5978652416484455E-01    6.1336644948878516E-01    8.7514382570920135E-01
Br    3.6813147164843374E-01    6.2948904555779339E-01    7.5950434498879793E-01
Br    3.8289896803077611E-01    5.0982686649900855E-01    8.7859060571664493E-01
Cs    5.0277149355625084E-01    5.1653384764736077E-01    7.4595190914052700E-01
Si    6.2620996385397265E-01    6.2832955827077441E-01    8.8444314893303411E-01
Br    5.0315721501767019E-01    6.2604392448845614E-01    8.9145327571168609E-01
Br    6.2772249005678149E-01    6.2539316896991537E-01    7.2795512220679581E-01
Br    6.2508400853259682E-01    4.9265355956099727E-01    8.6972391545148853E-01
Cs    7.4698896132544479E-01    5.0814563145733049E-01    7.4686896594162366E-01
Si    8.6310902535862899E-01    6.2355021450200698E-01    8.8312731872871364E-01
Br    7.4234512552569487E-01    6.3042974554993014E-01    8.7331704432624180E-01
Br    8.5742042212659486E-01    6.3444219821078363E-01    7.4122336039347259E-01
Br    8.5978011380734010E-01    5.1785110570402237E-01    8.7752580761069698E-01
Cs    3.8555376864103773E-03    7.4680365574615992E-01    7.4712127187911637E-01
Si    1.3118499130255226E-01    8.7139687587515657E-01    8.5956161308244139E-01
Br    1.3402402768755891E-02    8.5726284375178519E-01    8.6414756499604617E-01
Br    1.3542474035535004E-01    8.7900902800789027E-01    7.5037488146681874E-01
Br    1.3677640385057716E-01    7.2963556499660598E-01    8.7548687682580095E-01