 # Version information for this restart file 
 # current date 2021-08-16 19:26:42.722
 # current working dir /projectsp/f_rcr78_1/MW/Hybrid_Perovskite/CsSiBr3/4x4/500K
 # Program compiled at                              Fri Sep 13 14:50:45 EDT 2019
 # Program compiled on                             slepner083.amarel.rutgers.edu
 # Program compiled for                                                    local
 # Source code revision number                                       git:e35496b
 &GLOBAL
   PRINT_LEVEL  LOW
   PROJECT_NAME CSB_MD
   RUN_TYPE  MD
   WALLTIME 23:58:00
 &END GLOBAL
 &MOTION
   &MD
     ENSEMBLE  NVT
     STEPS  5000
     TIMESTEP     9.9999999999999989E-01
     STEP_START_VAL  4942
     TIME_START_VAL     4.9419999999995789E+03
     ECONS_START_VAL    -4.1271290342870643E+03
     TEMPERATURE     5.0000000000000000E+02
     COMVEL_TOL     1.0000000000000000E-08
     &THERMOSTAT
       TYPE  CSVR
       &CSVR
         TIMECON     9.9999999999999986E+01
         &THERMOSTAT_ENERGY
              -8.2919322523832617E-01
         &END THERMOSTAT_ENERGY
         &RNG_INIT
Wiener process for Thermostat # 1        1 F T F   3.0231980741619757E-01        3897817770.0        3476824302.0        2444340590.0        4036679011.0        1192982567.0        3410425772.0             12345.0             12345.0             12345.0             12345.0             12345.0             12345.0             12345.0             12345.0             12345.0             12345.0             12345.0             12345.0
         &END RNG_INIT
       &END CSVR
     &END THERMOSTAT
     &AVERAGES  T
       &RESTART_AVERAGES
         ITIMES_START  1
         AVECPU     1.7454926039452634E+01
         AVEHUGONIOT     0.0000000000000000E+00
         AVETEMP_BARO     0.0000000000000000E+00
         AVEPOT    -4.1271266624421405E+03
         AVEKIN     7.4954048144922514E-01
         AVETEMP     4.9464134089578420E+02
         AVEKIN_QM     0.0000000000000000E+00
         AVETEMP_QM     0.0000000000000000E+00
         AVEVOL     7.0919701531041777E+04
         AVECELL_A     4.1392561214727309E+01
         AVECELL_B     4.1392561214727309E+01
         AVECELL_C     4.1392561214727309E+01
         AVEALPHA     9.0000000000000000E+01
         AVEBETA     9.0000000000000000E+01
         AVEGAMMA     9.0000000000000000E+01
         AVE_ECONS     3.8016768490529212E-01
         AVE_PRESS     0.0000000000000000E+00
         AVE_PXX     0.0000000000000000E+00
       &END RESTART_AVERAGES
     &END AVERAGES
   &END MD
   &PRINT
     &TRAJECTORY  SILENT
       &EACH
         MD  1
       &END EACH
     &END TRAJECTORY
     &VELOCITIES  SILENT
       &EACH
         MD  1
       &END EACH
     &END VELOCITIES
     &FORCES  SILENT
       &EACH
         MD  1
       &END EACH
     &END FORCES
     &STRESS  SILENT
       &EACH
         MD  1
       &END EACH
     &END STRESS
     &RESTART  SILENT
       BACKUP_COPIES  3
       &EACH
         MD  1
       &END EACH
     &END RESTART
     &RESTART_HISTORY  SILENT
       &EACH
         MD  5
       &END EACH
     &END RESTART_HISTORY
   &END PRINT
 &END MOTION
 &FORCE_EVAL
   METHOD  QS
   &DFT
     BASIS_SET_FILE_NAME BASIS_MOLOPT
     POTENTIAL_FILE_NAME GTH_POTENTIALS
     MULTIPLICITY  1
     CHARGE  0
     &SCF
       MAX_SCF  30
       EPS_SCF     1.0000000000000001E-05
       SCF_GUESS  ATOMIC
       &OT  T
         MINIMIZER  DIIS
         PRECONDITIONER  FULL_SINGLE_INVERSE
       &END OT
       &OUTER_SCF  T
         EPS_SCF     1.0000000000000001E-05
         MAX_SCF  10
       &END OUTER_SCF
       &PRINT
         &RESTART  OFF
         &END RESTART
       &END PRINT
     &END SCF
     &QS
       EPS_DEFAULT     1.0000000000000000E-10
       EXTRAPOLATION  ASPC
       METHOD  GPW
     &END QS
     &MGRID
       NGRIDS  4
       CUTOFF     4.0000000000000000E+02
       REL_CUTOFF     9.0000000000000000E+01
     &END MGRID
     &XC
       DENSITY_CUTOFF     1.0000000000000000E-10
       GRADIENT_CUTOFF     1.0000000000000000E-10
       TAU_CUTOFF     1.0000000000000000E-10
       &XC_FUNCTIONAL  NO_SHORTCUT
         &PBE  T
         &END PBE
       &END XC_FUNCTIONAL
     &END XC
     &POISSON
       PERIODIC  XYZ
     &END POISSON
     &REAL_TIME_PROPAGATION
       INITIAL_WFN  SCF_WFN
     &END REAL_TIME_PROPAGATION
     &PRINT
       &MO_CUBES  SILENT
         WRITE_CUBE  F
         NLUMO  4
         NHOMO  4
         &EACH
           MD  10
         &END EACH
       &END MO_CUBES
       &E_DENSITY_CUBE  OFF
       &END E_DENSITY_CUBE
     &END PRINT
   &END DFT
   &SUBSYS
     &CELL
       A     2.1904000000000000E+01    0.0000000000000000E+00    0.0000000000000000E+00
       B     0.0000000000000000E+00    2.1904000000000000E+01    0.0000000000000000E+00
       C     0.0000000000000000E+00    0.0000000000000000E+00    2.1904000000000000E+01
       MULTIPLE_UNIT_CELL  1 1 1
     &END CELL
     &COORD
Cs    7.5491564919174933E-03   -5.0441548766644150E-03   -4.2753247910528710E-05
Si    1.2273007767510477E-01    1.2317926834063876E-01    1.1188585586596961E-01
Br    1.0566281029575698E-02    1.3005548953477727E-01    1.0889688380724205E-01
Br    1.3653841943230968E-01    1.1974894556978344E-01   -7.6004265154056942E-03
Br    1.0530833888205747E-01    9.1156153343071485E-03    1.3639855176128593E-01
Cs    2.6216592181350890E-01    6.8024602422915364E-03   -7.7904918347976981E-03
Si    3.7279333953751326E-01    1.1977805936088758E-01    1.3622011643338555E-01
Br    2.5291210115106999E-01    1.2426683030381354E-01    1.4683389338946992E-01
Br    3.7707935263577708E-01    1.1612962934861293E-01   -8.7019709261586167E-03
Br    3.8512428419007283E-01    3.4797276789414783E-03    1.2238671078628206E-01
Cs    4.9729123103401057E-01    1.4077447477225995E-02    9.0700899509319911E-03
Si    6.2113313024571115E-01    1.3862143989490736E-01    1.0918557950104339E-01
Br    5.0772419402286617E-01    1.4656932726504304E-01    1.1670866724109720E-01
Br    6.5059952930742693E-01    1.2770455436254133E-01   -7.7026399340046658E-04
Br    6.1533805754465309E-01    3.1225232518159165E-03    1.0437943677535175E-01
Cs    7.5096072602413866E-01   -1.3652815591976961E-02   -1.2377980564675452E-02
Si    8.6517224968283435E-01    1.2680069549245992E-01    1.2572916420848715E-01
Br    7.5549995411201309E-01    1.1168465529079767E-01    1.2913697118131992E-01
Br    8.6639729360683171E-01    1.0960199511917365E-01   -4.2851490405372984E-04
Br    8.6126163604880490E-01   -5.9464919474121643E-03    1.3010399470398973E-01
Cs    5.8206825719301063E-03    2.6129207042063074E-01    1.2755392273159132E-02
Si    1.2386194606396057E-01    3.7048271377335384E-01    1.2508416887051005E-01
Br    6.5321852322464367E-03    3.6729555552872933E-01    1.3108879406998161E-01
Br    1.4114741796082680E-01    3.5634483991597832E-01    1.5976530548245528E-02
Br    1.3076728230250964E-01    2.5375279069338286E-01    1.4599603108085607E-01
Cs    2.4638143731963616E-01    2.3893341969734883E-01    6.4942028384181580E-03
Si    3.6571615610024649E-01    3.6902942181142528E-01    1.1523463919867498E-01
Br    2.5261637949450083E-01    3.8673175257651299E-01    1.2700022566477998E-01
Br    3.7012836293357493E-01    3.8127563748470494E-01    1.1149963697408840E-02
Br    3.6444962543002024E-01    2.5687929626259792E-01    1.0742054493687862E-01
Cs    5.0213506851003697E-01    2.5086922942982359E-01   -1.1688704160577130E-03
Si    6.1067879591475038E-01    3.9412757651319186E-01    1.4056694889610116E-01
Br    5.0058803763849302E-01    3.9417881214742923E-01    1.5319116553784076E-01
Br    6.0551120715548123E-01    3.6981815177749278E-01   -7.1095105146459932E-04
Br    6.2423726374760313E-01    2.5782792167818952E-01    1.2502162557862095E-01
Cs    7.4615968369883134E-01    2.6119825146715336E-01   -7.5266526625506506E-03
Si    8.6466179198399462E-01    3.6963502891654221E-01    1.2497833047632695E-01
Br    7.5326244586034474E-01    3.7860934613693309E-01    1.2920350380264364E-01
Br    8.6724841145016340E-01    3.6531180567136512E-01    9.8474055728413820E-03
Br    8.6892284764644101E-01    2.3667870258342563E-01    1.0319432133042727E-01
Cs    1.6354072783294871E-02    4.7798982909724497E-01   -2.1289133103915489E-03
Si    1.3246976297499127E-01    6.2787515563264029E-01    1.1654530057734436E-01
Br    2.6434547099511221E-03    6.3224976783705311E-01    1.2046348466087273E-01
Br    1.1966390486350599E-01    6.3803578312986609E-01    8.5647709804374441E-03
Br    1.2153594017725818E-01    5.1470955010263231E-01    1.0544148726868845E-01
Cs    2.5707542392149463E-01    4.9839807444948186E-01    4.3849049857391268E-03
Si    3.9454111954982946E-01    6.2935510599513855E-01    1.1552653532961843E-01
Br    2.5856247407434924E-01    6.3099426009278115E-01    1.2788532486884341E-01
Br    3.8165547591465787E-01    6.3102601163495620E-01   -2.0504863093311477E-03
Br    3.9780012147643068E-01    5.2296145645790471E-01    1.2022988711874413E-01
Cs    5.0115014505396460E-01    5.2169668855676588E-01   -3.3517857885791797E-03
Si    6.4569187733637790E-01    6.4482567214213693E-01    1.2603663338857057E-01
Br    5.0685969646640394E-01    6.6097373281319516E-01    1.0744802534623402E-01
Br    6.4285391828048033E-01    6.4586290827531101E-01   -6.0061457322997149E-03
Br    6.1074701206093773E-01    5.1390256979856408E-01    9.8689770576266822E-02
Cs    7.4490367676378377E-01    5.0377671451819128E-01   -6.3295262109883956E-04
Si    8.7846208756269573E-01    6.3425864562269041E-01    1.1355853018859692E-01
Br    7.5470845311140111E-01    6.0669357000792656E-01    1.3576595696859381E-01
Br    8.6665887087334270E-01    6.3383844722817895E-01    2.4399571245028334E-03
Br    8.6643321921694683E-01    4.8513449595182978E-01    1.2418877815616744E-01
Cs   -9.9203814153971497E-03    7.5416023756598050E-01   -1.0053324343714839E-04
Si    1.1710335933890938E-01    8.7305806380227369E-01    1.2447449216657459E-01
Br    1.7356579216159576E-03    8.8358562040203703E-01    1.2651528899395081E-01
Br    1.3313802579913400E-01    8.9107627192025152E-01    1.1237921061739676E-02
Br    1.0703860163931020E-01    7.5540117287812580E-01    1.2987614326990984E-01
Cs    2.5712860688331524E-01    7.4658415299473924E-01    5.7953803022595474E-03
Si    3.7011122689192172E-01    8.7017564123788627E-01    1.2275062958830107E-01
Br    2.5744079805734910E-01    8.6762874204542539E-01    1.3453145347328305E-01
Br    3.7409175331298444E-01    8.8859670550405678E-01    3.9812294688778734E-03
Br    3.7463735998157610E-01    7.5701931808501455E-01    1.2630911471263170E-01
Cs    4.7911413924276464E-01    7.6747339839677131E-01   -6.7494888619428093E-03
Si    6.1531360342916863E-01    8.8741399198976179E-01    1.2698800878518984E-01
Br    5.1101609789521929E-01    8.7438866398722992E-01    1.3776184887183751E-01
Br    6.2226687732493891E-01    8.7386278421988417E-01   -3.5424313411617767E-03
Br    6.6435716751903051E-01    7.5767589587834472E-01    1.2922769798455305E-01
Cs    7.4623777028774463E-01    7.7533378338328152E-01    9.0177050480643988E-03
Si    8.6528055124641323E-01    8.8226875928732407E-01    1.3387896287385495E-01
Br    7.4959951561427507E-01    8.9022055616880957E-01    1.2299242179133112E-01
Br    8.7184672492183413E-01    8.8297164856132326E-01    3.9825648954543253E-03
Br    8.6562279591567648E-01    7.4171820992913395E-01    1.3079267543910567E-01
Cs   -1.8334498389139465E-02    1.0729628653611394E-02    2.3974568095134643E-01
Si    1.1895691040373525E-01    1.1142361370712039E-01    3.6353896918536677E-01
Br    3.7559071843719671E-03    1.0774653507833713E-01    3.8041498865666734E-01
Br    1.1943623895358452E-01    1.2081229137927824E-01    2.4798332481248325E-01
Br    1.4605827463558674E-01    3.2452423093508056E-03    3.6475008151535832E-01
Cs    2.5458349565986343E-01   -1.1531211415577244E-02    2.5292127526401459E-01
Si    3.7053622163108646E-01    1.1325422219640474E-01    3.7453210807222226E-01
Br    2.6379619888671896E-01    1.1072496459945917E-01    3.6844461242513060E-01
Br    3.7581147764502348E-01    1.2364350908433548E-01    2.4293589151156472E-01
Br    3.9019313931520644E-01   -1.1511451123343302E-02    3.6955115497768132E-01
Cs    5.1354941829040845E-01    2.4297640724683552E-02    2.3434849887031944E-01
Si    6.1817921347721827E-01    1.3338317268982233E-01    3.5623661750454633E-01
Br    5.0289189261713096E-01    1.3538634120255230E-01    3.5683359434130679E-01
Br    6.2914634885675236E-01    1.4547737740771627E-01    2.3715343181429130E-01
Br    6.1142187330479547E-01    1.0239682313877398E-02    3.4663822602474759E-01
Cs    7.5276318607392312E-01    5.9298969938839773E-03    2.5263972886536568E-01
Si    8.6682487273037956E-01    1.2372371218770634E-01    3.7666088735367054E-01
Br    7.6246285694932692E-01    1.2944050447775574E-01    3.7937563160289289E-01
Br    8.6114436685245443E-01    1.4423152817581894E-01    2.4146480644657403E-01
Br    8.7291322881624067E-01   -1.0162867220301500E-02    3.6903268573014580E-01
Cs   -6.1038667383434093E-03    2.4036592730282788E-01    2.6670191686273281E-01
Si    1.4000622289948311E-01    3.6822568986676402E-01    3.7798329663910119E-01
Br   -5.4847515036320470E-03    3.5802443030882986E-01    3.6993344396986161E-01
Br    1.2579156584760390E-01    3.7308728299436317E-01    2.6976818276752818E-01
Br    1.1989138037172210E-01    2.4411401509197123E-01    3.7127193115377299E-01
Cs    2.3771552158457090E-01    2.5250970307963549E-01    2.6620807878916425E-01
Si    3.7794079064216696E-01    3.7441699704383563E-01    3.6129137793140625E-01
Br    2.5337638698591353E-01    3.6497601149125514E-01    3.7264914006288113E-01
Br    3.6783964391413959E-01    3.5803453187666462E-01    2.5217629976733941E-01
Br    3.6943626925756223E-01    2.3435279931729144E-01    3.7734920462173716E-01
Cs    5.0625813571761979E-01    2.5417099304262886E-01    2.5244380872696476E-01
Si    6.3047042452507263E-01    3.7414152689047586E-01    3.8952210759358979E-01
Br    4.9403612270847286E-01    3.7067758536488776E-01    3.7048062436439710E-01
Br    6.1129452739573342E-01    3.7671925736172751E-01    2.6335381369572569E-01
Br    6.4085759293912381E-01    2.6224060447113373E-01    3.8141557381423774E-01
Cs    7.5619789825367956E-01    2.5944499994084419E-01    2.3176317150187237E-01
Si    8.8388936030987308E-01    3.6516579198952587E-01    3.8295478936239818E-01
Br    7.3956496547030193E-01    3.9226130288510652E-01    3.9127413807349037E-01
Br    8.8263079271565470E-01    3.7296486173821941E-01    2.6234696046492634E-01
Br    8.8269404124309914E-01    2.3478815578626896E-01    3.9252301126427924E-01
Cs   -6.8624007373080820E-04    4.8334650285050162E-01    2.5819610866287379E-01
Si    1.1910810026273161E-01    6.1276303652566921E-01    3.7217294901721176E-01
Br   -3.4717429769444454E-03    6.2890989916930562E-01    3.7881120140388169E-01
Br    1.2011402820415792E-01    6.2314988096383084E-01    2.5900669769981527E-01
Br    1.2277368682548626E-01    4.9954098962169374E-01    3.7024833601068091E-01
Cs    2.5150043333132927E-01    5.0703390272475268E-01    2.4405530744315090E-01
Si    3.7792444810010889E-01    6.2407046111709730E-01    3.6365044163082594E-01
Br    2.4795294067554541E-01    6.2506465524926502E-01    3.7652452280953552E-01
Br    3.9823140143496294E-01    6.4766199232795563E-01    2.5635513688291545E-01
Br    3.6342232156408238E-01    4.8911032054404313E-01    3.4324407382303335E-01
Cs    5.0667658785285818E-01    5.1538897550477236E-01    2.5378468125179970E-01
Si    6.3755234742874023E-01    6.2678321441397034E-01    3.8465349550986183E-01
Br    5.1314584077565906E-01    6.1770334522793002E-01    3.8656581207730095E-01
Br    6.1806453105472470E-01    6.5590028272288248E-01    2.3721221576058821E-01
Br    6.3612069261131787E-01    5.0763454133102071E-01    3.7541745270122567E-01
Cs    7.6223527784706757E-01    4.9352067887216139E-01    2.6793160600803717E-01
Si    8.7240706161476378E-01    6.1901347541493090E-01    3.6833006100499155E-01
Br    7.5887312748224767E-01    6.2150748718139304E-01    3.8492049377302401E-01
Br    8.6016911647426131E-01    6.1452158467526619E-01    2.6120000302833452E-01
Br    8.9498111171359840E-01    4.8122638906828596E-01    3.9209818630869425E-01
Cs    1.2130208037956326E-04    7.4143680779420940E-01    2.5597439566206037E-01
Si    1.2120980607138003E-01    8.7217207186961243E-01    3.6825197961301775E-01
Br    4.5037953676300389E-03    8.6965525711580538E-01    3.6552590396095547E-01
Br    1.2088996332788900E-01    8.6928023928135933E-01    2.6794249362726857E-01
Br    1.2213334969583636E-01    7.5645636704101149E-01    3.8703123573871340E-01
Cs    2.3505338544683721E-01    7.4070817749991957E-01    2.6551988895266260E-01
Si    3.7843602305252871E-01    8.7507562481575041E-01    3.6353963837300918E-01
Br    2.6439527471207885E-01    8.7699209071143402E-01    3.7028349095719876E-01
Br    3.8933182392264437E-01    8.6891496665259471E-01    2.4862304649364675E-01
Br    3.8549669873908515E-01    7.2694876700209388E-01    3.9488050605251512E-01
Cs    5.0910059663532914E-01    7.5780810210353888E-01    2.7317607280374007E-01
Si    6.2126134372382202E-01    8.8039032363254233E-01    3.7973173262206245E-01
Br    5.1203160454444385E-01    8.6725960437622795E-01    3.7675800713017404E-01
Br    6.2076997612313256E-01    8.7742484503135698E-01    2.4071238110592050E-01
Br    6.2220225928270678E-01    7.6658554422969227E-01    3.8829394346119467E-01
Cs    7.4415606262161926E-01    7.5894859135972259E-01    2.6813864067246890E-01
Si    8.7278363689021587E-01    8.7787041816697020E-01    3.7392619618477890E-01
Br    7.5100036363678579E-01    8.8880938989042935E-01    3.8428922741124599E-01
Br    8.7834078108826519E-01    8.6721221133304471E-01    2.4940096322749272E-01
Br    8.6271204985320804E-01    7.4225325245217100E-01    3.6977903801656153E-01
Cs    3.9722278523977505E-03   -2.8956368289212381E-03    4.9707686866086392E-01
Si    1.3323638635477639E-01    1.1737051527208243E-01    6.2479283405901265E-01
Br    2.4249736999189919E-02    1.1971872839856570E-01    6.0857235314968461E-01
Br    1.3536754104789317E-01    1.2179809250188409E-01    5.0266194991554169E-01
Br    1.3883935062283664E-01   -2.0511582385369332E-03    6.0699638067836525E-01
Cs    2.6906640664012760E-01   -2.2692343428006995E-03    4.9078864701811686E-01
Si    3.6731998743563893E-01    1.3614621736998483E-01    6.2239602006629446E-01
Br    2.6904446918043406E-01    1.2329298701268131E-01    6.5860915461894609E-01
Br    3.8016489450262958E-01    1.1000759958127260E-01    4.8205851977752273E-01
Br    3.8125971457598062E-01    1.8651334550888912E-03    6.2017913107819411E-01
Cs    5.1132716583151772E-01    1.0974471859575955E-02    4.8199230216705291E-01
Si    6.0984837295444738E-01    1.3631844866186496E-01    6.1336106985621097E-01
Br    5.0325999724681525E-01    1.3000325350217815E-01    6.0897562282445306E-01
Br    6.0869370367682840E-01    1.2452446372888469E-01    4.9409981929734642E-01
Br    6.4156819036926993E-01   -1.0478149899760237E-03    6.1437948753287908E-01
Cs    7.6323834123627843E-01    1.2276108446098851E-03    5.0412959745897834E-01
Si    8.6268159514066267E-01    1.3825962034284106E-01    6.2929007800087133E-01
Br    7.4905966982309968E-01    1.4426939818072301E-01    6.2682248343467917E-01
Br    8.7537326739137822E-01    1.3074990293568017E-01    4.9755466825110506E-01
Br    8.7069505314753337E-01   -7.6024018973099997E-03    6.2689371410326633E-01
Cs    1.9219070674156243E-02    2.3239167132734109E-01    4.8952447082671741E-01
Si    1.3277356886239697E-01    3.6500374680881792E-01    6.1791295738820085E-01
Br    1.1650247327663404E-02    3.4106496164267386E-01    6.2309478736734336E-01
Br    1.2867542984472524E-01    3.6061923389677059E-01    5.0595329363943764E-01
Br    1.4261361175578849E-01    2.5745304338089869E-01    6.3064462838274504E-01
Cs    2.3840073417527613E-01    2.4226266231535290E-01    4.9762953781586522E-01
Si    3.7412980667333007E-01    3.8958211296766226E-01    6.1105372848349704E-01
Br    2.4900924179652678E-01    3.7462441645879624E-01    6.2904520103835115E-01
Br    3.6940461722525136E-01    3.8647747955061723E-01    5.0190630312845164E-01
Br    3.6317478183691321E-01    2.4393261159131199E-01    6.1230671143846827E-01
Cs    4.9249855374498103E-01    2.6019631704793300E-01    4.8753388588935004E-01
Si    6.2600173681145999E-01    3.8338173095931899E-01    6.4448169917235387E-01
Br    5.0672415917062230E-01    3.9567390421814491E-01    6.3067850917435142E-01
Br    6.2549938386668702E-01    3.8024869541516720E-01    5.0338204138545606E-01
Br    6.0645965528022960E-01    2.5064255827572479E-01    6.2559654763850758E-01
Cs    7.4633118791749498E-01    2.4845691516941881E-01    5.0249578340122758E-01
Si    8.7636741280482278E-01    3.6592572216027031E-01    6.3324400090409461E-01
Br    7.5906138580787141E-01    3.6878128759394629E-01    6.2959843791185410E-01
Br    8.8560054682767220E-01    3.6330403506528441E-01    5.1034406351149553E-01
Br    8.9583194231016039E-01    2.3988143033715936E-01    6.1478957563079528E-01
Cs   -1.9006366605225911E-02    4.9275805563962355E-01    5.1582608244732631E-01
Si    1.1500883221983196E-01    6.1902073278699798E-01    6.1840864715255350E-01
Br    2.0108050923269968E-03    6.2874417607808741E-01    6.1790649812804754E-01
Br    1.1923374199421480E-01    6.1497056679189144E-01    5.1237070412784536E-01
Br    1.0700221851058379E-01    5.0522615866031162E-01    6.3469685952961064E-01
Cs    2.2972179165655446E-01    4.9605234688900235E-01    5.0775690035892262E-01
Si    3.6780591091345449E-01    6.2777641983277099E-01    6.1417026894598881E-01
Br    2.4969585721525447E-01    6.3015478373989775E-01    6.2546633567013765E-01
Br    3.7900200952715202E-01    6.2529460081782273E-01    5.0408284051839403E-01
Br    3.7468022422861169E-01    5.0204538657593556E-01    6.2622446870134918E-01
Cs    4.9694939057546827E-01    4.9864041730226338E-01    4.8722984835742755E-01
Si    6.1176572255014761E-01    6.3313322246209280E-01    6.3479157472753667E-01
Br    5.0595641720139350E-01    6.2203345952480615E-01    6.1077493278167405E-01
Br    6.2884731750009848E-01    6.1016297317228396E-01    4.9951764787516439E-01
Br    6.3616412785404886E-01    4.9358688620112573E-01    6.4896872368589220E-01
Cs    7.5677936676028768E-01    4.9633062530707794E-01    5.1474693126813231E-01
Si    8.6624685071430418E-01    6.1596235366041163E-01    6.2133059111363742E-01
Br    7.6002308938188001E-01    6.1205444530838338E-01    6.3332854823648210E-01
Br    8.7291728593659734E-01    6.1661244514215996E-01    5.0992190929229253E-01
Br    8.7759672971891067E-01    4.7478401552571314E-01    6.4500143855968872E-01
Cs   -7.7727472415388601E-03    7.4250098593842961E-01    4.8639894923592636E-01
Si    1.2246849697233771E-01    8.7477028081895092E-01    6.0817844912044516E-01
Br    6.5462847567889252E-03    8.5869328987442584E-01    6.1084445155381828E-01
Br    1.2972691732464453E-01    8.8578841355954929E-01    4.9860097419337918E-01
Br    1.5488448058022147E-01    7.6665904882679137E-01    6.0468231019360852E-01
Cs    2.6114772423886418E-01    7.5071746344181656E-01    4.9198260077363559E-01
Si    3.8002840052375358E-01    8.8233308378573516E-01    6.0948257491037183E-01
Br    2.7014414000164355E-01    8.8458456810587804E-01    6.1662122411549281E-01
Br    3.9352070927261373E-01    8.6570498295954623E-01    4.9839993696858265E-01
Br    3.8782793866800475E-01    7.3707179556763913E-01    6.1128815064422026E-01
Cs    5.0552236900117176E-01    7.4019200709335076E-01    5.0148812552407529E-01
Si    6.0903763337573458E-01    8.9179237552938562E-01    6.2300227540392694E-01
Br    5.0607267342883788E-01    9.0836210459837863E-01    6.2384582341003925E-01
Br    6.3054102938875523E-01    8.8993651786986672E-01    4.9072400866995902E-01
Br    6.0569636250019399E-01    7.4817924823942361E-01    6.2387052359769302E-01
Cs    7.4581830363503321E-01    7.3307213530061255E-01    5.1533447877783622E-01
Si    8.6516596206549667E-01    8.7727797022992937E-01    6.2890505417332176E-01
Br    7.5261747962923509E-01    8.6130466222588853E-01    6.1339330772670253E-01
Br    8.6662977845417799E-01    8.6750027837048405E-01    4.9580034651362426E-01
Br    8.6409320106634202E-01    7.2875719130524141E-01    6.2694680030175731E-01
Cs   -6.3834728440359490E-03   -1.3199527788094965E-02    7.4910628780214084E-01
Si    1.1559821889694531E-01    1.1305103237084652E-01    8.7175928246310963E-01
Br    4.0619572527586549E-03    1.0632981070263800E-01    9.0321216396698922E-01
Br    1.0940410723734022E-01    1.1645858006686075E-01    7.4781416026514136E-01
Br    1.2641401307195568E-01    4.7261583568338631E-03    8.7254991647326119E-01
Cs    2.3388880567264156E-01   -7.5201510371981908E-03    7.4513841760536370E-01
Si    3.6513696733362144E-01    1.2660604114159452E-01    8.7052827158340396E-01
Br    2.5874261816784633E-01    1.1083361548654880E-01    8.6722255230639711E-01
Br    3.9412375174992093E-01    1.4157790170341442E-01    7.3019580868354816E-01
Br    3.9126405640072764E-01    7.6961253546144548E-03    8.6434318070112393E-01
Cs    5.0391309334514789E-01    9.4906362577739795E-03    7.6139608402107073E-01
Si    6.1709016466688227E-01    1.3638211844690032E-01    8.6164460008337040E-01
Br    5.0969367084951889E-01    1.4144910939806332E-01    8.7487930110198564E-01
Br    6.2773011814565083E-01    1.1169063721174388E-01    7.5422503719692380E-01
Br    6.0926631553436328E-01   -6.4482699084969768E-03    8.7219619208068133E-01
Cs    7.5358846376027089E-01    1.7662356096889670E-03    7.5139202092501545E-01
Si    8.5615749205376868E-01    1.2103595825207557E-01    8.8853981299601503E-01
Br    7.5242536861006870E-01    1.2789299104211624E-01    8.8524762577606297E-01
Br    8.6117107251974778E-01    1.2570833962057446E-01    7.4342092706321339E-01
Br    8.7655863296218106E-01    4.7760334140559883E-04    8.6169886548990782E-01
Cs   -4.7833144399875458E-03    2.3818839727080277E-01    7.4128403749471616E-01
Si    1.1561323705273935E-01    3.7931904693742036E-01    8.6273894921177896E-01
Br    6.4364393943309364E-03    3.7954213069462739E-01    8.7039516061085065E-01
Br    1.2557850395176359E-01    3.6748981243136769E-01    7.5857833428650145E-01
Br    1.2550011975105776E-01    2.5153196352543711E-01    8.6588496676477822E-01
Cs    2.5685965698963759E-01    2.3717179690928933E-01    7.5304216320333284E-01
Si    3.5602220552526515E-01    3.7585039079294036E-01    8.7218933971671730E-01
Br    2.5235345650576535E-01    3.7081443114211632E-01    8.9280122338780943E-01
Br    3.6845366211028902E-01    3.7905409915486460E-01    7.5439821524724415E-01
Br    3.8700922538084548E-01    2.6212916309661871E-01    8.7167386473931985E-01
Cs    5.0683532903360717E-01    2.5820171953645499E-01    7.5348853132822480E-01
Si    6.0755074671257159E-01    3.8229602772390225E-01    8.8443849012194498E-01
Br    4.9830766133738597E-01    3.9376817454584612E-01    8.7353573303832499E-01
Br    6.4277961579332366E-01    3.6325609382902091E-01    7.5530733229283686E-01
Br    6.2825740488032444E-01    2.4354425993059706E-01    8.6333877228686984E-01
Cs    7.4093596697781039E-01    2.4380215764494803E-01    7.6245043470483143E-01
Si    8.6808317656251133E-01    3.6336287740114664E-01    8.7819129837735188E-01
Br    7.5962990006882003E-01    3.8305963589640124E-01    8.7959428434103348E-01
Br    8.7383028864189793E-01    3.6258619659727870E-01    7.6132518378653358E-01
Br    8.6314162688594509E-01    2.5261604225774220E-01    8.7691237902014763E-01
Cs   -6.2276836030152934E-03    4.9873961642428571E-01    7.5061259957476167E-01
Si    1.1096152904309849E-01    6.2348729154239635E-01    8.6771383260566914E-01
Br   -4.9290061293550168E-03    6.3895878731986133E-01    8.8012525084297166E-01
Br    1.2033794258527561E-01    6.4181440727684791E-01    7.5765928957800088E-01
Br    1.2564398434924542E-01    5.0488592319263248E-01    8.6889726499216524E-01
Cs    2.5683378286202202E-01    4.9890186299238126E-01    7.5180813018483816E-01
Si    3.6605281319077332E-01    6.2365986769601733E-01    8.7240499640122660E-01
Br    2.5983132507704571E-01    6.2630390598960162E-01    8.8406402091015035E-01
Br    3.6485415075101107E-01    6.3771248664994984E-01    7.6328433674311380E-01
Br    3.6809859203499051E-01    5.1401550498198112E-01    8.9422413554442215E-01
Cs    4.8850915944535800E-01    5.2320389146612700E-01    7.6135860027171420E-01
Si    6.1904892822209689E-01    6.3725708519390278E-01    8.7876987231431369E-01
Br    5.0350022245531290E-01    6.4717218162862455E-01    8.8291611956847105E-01
Br    6.1209679371564285E-01    6.2889867904713159E-01    7.4722365319768780E-01
Br    6.1976419622464751E-01    4.9376680088452690E-01    8.8711514228460375E-01
Cs    7.6512648323341415E-01    4.9607646426775709E-01    7.5414915720449049E-01
Si    8.8065596575583527E-01    6.2022407268973279E-01    8.6117706160744645E-01
Br    7.6439197417259341E-01    6.2712615448842080E-01    8.6852612035695020E-01
Br    8.8532966022704229E-01    6.1524876260837813E-01    7.4922067420002847E-01
Br    8.7840114933532842E-01    5.0663561472140772E-01    8.6724845424998231E-01
Cs   -1.2089212079061879E-02    7.4834979044336458E-01    7.5523948960663800E-01
Si    1.2137419312254238E-01    8.6204535893640821E-01    8.8176409999321270E-01
Br    6.3093455688855264E-03    8.5719069819783023E-01    8.7516195684324927E-01
Br    1.2605533658329471E-01    8.6036298888994645E-01    7.6626524175030075E-01
Br    1.3250956330567981E-01    7.5279239820098542E-01    8.8042520629502663E-01
Cs    2.3454933113109649E-01    7.4536894997150227E-01    7.6023774857335114E-01
Si    3.6618125538080215E-01    8.6666186214046714E-01    8.7558867921786110E-01
Br    2.5806095581797961E-01    8.6780608244371227E-01    9.0326750012454915E-01
Br    3.5160377990981329E-01    8.5950849121046335E-01    7.5934990184840279E-01