 # Version information for this restart file 
 # current date 2021-09-10 20:12:14.870
 # current working dir /projectsp/f_rcr78_1/MW/Hybrid_Perovskite/FAPbI3/300K/MLWFC3
 # Program compiled at                              Fri Sep 13 14:50:45 EDT 2019
 # Program compiled on                             slepner083.amarel.rutgers.edu
 # Program compiled for                                                    local
 # Source code revision number                                       git:e35496b
 &GLOBAL
   PRINT_LEVEL  LOW
   PROJECT_NAME FPB_MD_300
   RUN_TYPE  MD
   WALLTIME 47:58:00
 &END GLOBAL
 &MOTION
   &MD
     ENSEMBLE  NVT
     STEPS  5000
     TIMESTEP     9.9999999999999989E-01
     STEP_START_VAL  9337
     TIME_START_VAL     9.3369999999989886E+03
     ECONS_START_VAL    -4.2642859995950075E+03
     TEMPERATURE     3.0000000000000000E+02
     COMVEL_TOL     1.0000000000000000E-08
     &THERMOSTAT
       TYPE  CSVR
       &CSVR
         TIMECON     9.9999999999999986E+01
         &THERMOSTAT_ENERGY
              -4.6612084707417190E-01
         &END THERMOSTAT_ENERGY
         &RNG_INIT
Wiener process for Thermostat # 1        1 F T F   3.7679370857864547E-01        1465310607.0        3454040920.0         802630227.0         371061949.0         962450408.0        1189338998.0             12345.0             12345.0             12345.0             12345.0             12345.0             12345.0             12345.0             12345.0             12345.0             12345.0             12345.0             12345.0
         &END RNG_INIT
       &END CSVR
     &END THERMOSTAT
     &AVERAGES  T
       &RESTART_AVERAGES
         ITIMES_START  1
         AVECPU     4.2791205246581995E+02
         AVEHUGONIOT     0.0000000000000000E+00
         AVETEMP_BARO     0.0000000000000000E+00
         AVEPOT    -4.2648771622951499E+03
         AVEKIN     1.0837721830750733E+00
         AVETEMP     2.9746004304001610E+02
         AVEKIN_QM     0.0000000000000000E+00
         AVETEMP_QM     0.0000000000000000E+00
         AVEVOL     1.0988776726607233E+05
         AVECELL_A     4.8433380039726032E+01
         AVECELL_B     4.7361225164589960E+01
         AVECELL_C     4.7905088028159518E+01
         AVEALPHA     9.0000000000000000E+01
         AVEBETA     9.0000000000000000E+01
         AVEGAMMA     9.0000000000000000E+01
         AVE_ECONS     5.8011020634701200E+00
         AVE_PRESS     0.0000000000000000E+00
         AVE_PXX     0.0000000000000000E+00
       &END RESTART_AVERAGES
     &END AVERAGES
   &END MD
   &PRINT
     &TRAJECTORY  SILENT
       &EACH
         MD  1
       &END EACH
     &END TRAJECTORY
     &VELOCITIES  SILENT
       &EACH
         MD  1
       &END EACH
     &END VELOCITIES
     &FORCES  SILENT
       &EACH
         MD  1
       &END EACH
     &END FORCES
     &STRESS  SILENT
       &EACH
         MD  1
       &END EACH
     &END STRESS
     &RESTART  SILENT
       BACKUP_COPIES  3
       &EACH
         MD  1
       &END EACH
     &END RESTART
     &RESTART_HISTORY  SILENT
       &EACH
         MD  5
       &END EACH
     &END RESTART_HISTORY
   &END PRINT
 &END MOTION
 &FORCE_EVAL
   METHOD  QS
   &DFT
     BASIS_SET_FILE_NAME BASIS_MOLOPT
     POTENTIAL_FILE_NAME GTH_POTENTIALS
     MULTIPLICITY  1
     CHARGE  0
     &SCF
       MAX_SCF  30
       EPS_SCF     1.0000000000000001E-05
       CHOLESKY  INVERSE
       SCF_GUESS  ATOMIC
       ADDED_MOS  20
       &DIAGONALIZATION  T
         ALGORITHM  STANDARD
       &END DIAGONALIZATION
       &OUTER_SCF  T
         EPS_SCF     1.0000000000000001E-05
         MAX_SCF  10
       &END OUTER_SCF
       &SMEAR  T
         METHOD  FERMI_DIRAC
         ELECTRONIC_TEMPERATURE     5.0000000000000007E+01
       &END SMEAR
       &MIXING  T
         METHOD  BROYDEN_MIXING
         ALPHA     4.0000000000000002E-01
         BETA     5.9999999999999998E-01
         NBUFFER  8
       &END MIXING
       &PRINT
         &RESTART  OFF
         &END RESTART
       &END PRINT
     &END SCF
     &QS
       EPS_DEFAULT     1.0000000000000000E-10
       EXTRAPOLATION  ASPC
       METHOD  GPW
     &END QS
     &MGRID
       NGRIDS  4
       CUTOFF     4.0000000000000000E+02
       REL_CUTOFF     8.0000000000000000E+01
     &END MGRID
     &XC
       DENSITY_CUTOFF     1.0000000000000000E-10
       GRADIENT_CUTOFF     1.0000000000000000E-10
       TAU_CUTOFF     1.0000000000000000E-10
       &XC_FUNCTIONAL  NO_SHORTCUT
         &PBE  T
         &END PBE
       &END XC_FUNCTIONAL
     &END XC
     &POISSON
       PERIODIC  XYZ
     &END POISSON
     &LOCALIZE  T
       EPS_LOCALIZATION     1.0000000000000001E-05
       METHOD  JACOBI
       &PRINT
         &WANNIER_CENTERS  SILENT
           IONS+CENTERS  T
         &END WANNIER_CENTERS
         &WANNIER_SPREADS  SILENT
         &END WANNIER_SPREADS
       &END PRINT
     &END LOCALIZE
     &REAL_TIME_PROPAGATION
       INITIAL_WFN  SCF_WFN
     &END REAL_TIME_PROPAGATION
     &PRINT
       &MO_CUBES  SILENT
         WRITE_CUBE  F
         NLUMO  4
         NHOMO  4
         &EACH
           MD  10
         &END EACH
       &END MO_CUBES
       &E_DENSITY_CUBE  OFF
       &END E_DENSITY_CUBE
     &END PRINT
   &END DFT
   &SUBSYS
     &CELL
       A     2.5629840852000001E+01    0.0000000000000000E+00    0.0000000000000000E+00
       B     0.0000000000000000E+00    2.5062480927999999E+01    0.0000000000000000E+00
       C     0.0000000000000000E+00    0.0000000000000000E+00    2.5350280760000000E+01
       MULTIPLE_UNIT_CELL  1 1 1
     &END CELL
     &COORD
C    1.2847510677866381E-01    1.2544799511885241E-01    1.4408722887690001E-01
N    1.2603417006827261E-01    1.6094007727798143E-01    1.0702756150552563E-01
N    1.2558005058846466E-01    7.3086506310429650E-02    1.3543746930257081E-01
H    1.3503856299510664E-01    1.3882511888700455E-01    1.8647435380789446E-01
H    1.3023354982974225E-01    1.9956416594679438E-01    1.2084254497314716E-01
H    1.2569488220561920E-01    1.5298698096224903E-01    6.8567689592988812E-02
H    1.3015598640263473E-01    5.5611654899684622E-02    9.9988762912098725E-02
H    1.2443666592602265E-01    4.9055797563067070E-02    1.6733196949861626E-01
Pb   -5.5997712146997293E-03    2.3206428139379789E-01    2.7015542898108811E-03
I    1.2880038022326210E-01    2.4838446176555898E-01   -2.0128312649590405E-02
I    1.8608923257456018E-02    9.8186932002132618E-02    3.0601389980285668E-02
I    5.9712194576550534E-03    2.5680608865524451E-01    1.2688151647662582E-01
C    3.9293849192070718E-01    9.3814699047193403E-02    1.2153143810353002E-01
N    3.5482360163823656E-01    1.2417700361452996E-01    1.3933770529212910E-01
N    4.3957304754330123E-01    1.1396992795422670E-01    1.1383581393725552E-01
H    3.8667513749296206E-01    5.0908385270581828E-02    1.1481654496178341E-01
H    3.2003934736948192E-01    1.0694598402588248E-01    1.5102579486789444E-01
H    3.6393675961719668E-01    1.6184379344689134E-01    1.5447987042170835E-01
H    4.4840654385689643E-01    1.5403228459598203E-01    1.1561049362650611E-01
H    4.7162827399424351E-01    8.8974624751101974E-02    1.0683504948557651E-01
Pb    2.4739637401681616E-01    2.4397509500520032E-01    2.1991287419956757E-03
I    3.7107578276035513E-01    2.4957302866744888E-01    3.4599107586698756E-02
I    2.3130210584555980E-01    1.0979584075336545E-01   -1.1170800650101366E-04
I    2.4271191733508543E-01    2.7973699538950747E-01    1.2447775379140293E-01
C    6.3247797743261569E-01    1.3261306432305645E-01    1.4824696902415432E-01
N    6.2307534282179677E-01    8.5138794549379906E-02    1.2541797845020591E-01
N    6.3171431700407987E-01    1.7774641612258707E-01    1.2312926998208337E-01
H    6.4715975458925667E-01    1.3478279527132297E-01    1.8882408937065084E-01
H    6.2059237801170453E-01    5.0317880128721952E-02    1.4928377027888193E-01
H    6.0779871668771535E-01    8.4720577850970799E-02    8.9988890363353724E-02
H    6.1523776848805944E-01    1.8275791702195548E-01    8.5107957599972833E-02
H    6.3435045824939751E-01    2.1112032331099367E-01    1.4516467343148726E-01
Pb    4.9333006354397108E-01    2.3178474826390713E-01    9.6622914133405735E-03
I    6.2641671625263373E-01    2.5905914944320341E-01    1.7441184849109079E-03
I    5.3087604452546255E-01    1.1199753964800120E-01    1.1955670245393839E-02
I    5.0611418409289111E-01    2.3756320479394072E-01    1.3257251361947761E-01
C    8.8446654994071505E-01    1.1739041220352729E-01    1.5449802887947331E-01
N    8.3634432655628699E-01    1.0160064617693085E-01    1.6380709824072703E-01
N    9.0998141131642873E-01    1.1011487616040473E-01    1.0977214897233854E-01
H    9.0493098249747494E-01    1.3795563953473347E-01    1.8582304690160123E-01
H    8.1573863913492684E-01    1.1530904703705870E-01    1.9492321532653173E-01
H    8.0924119104629055E-01    8.8726433282043035E-02    1.3504412165715809E-01
H    8.9497069709184285E-01    8.9711784459428609E-02    7.7359844601602945E-02
H    9.4870569984823905E-01    1.1997227534199979E-01    1.0873962814273520E-01
Pb    7.5217330291085904E-01    2.5135750280773345E-01    6.9590656388910212E-03
I    8.7906716093481496E-01    2.1554577371365272E-01    9.3653278602379309E-03
I    7.3669754108224483E-01    1.2201460823212705E-01    4.1599939203686709E-02
I    7.5448714643309500E-01    2.5936904107781711E-01    1.2887787203157708E-01
C    1.0398662214840231E-01    3.5484792315875180E-01    1.3130675883646775E-01
N    1.3798301798648158E-01    3.6300728964026158E-01    1.6875119544171369E-01
N    1.1882245897564662E-01    3.5009381346010088E-01    8.0102309506727781E-02
H    6.3948646582196123E-02    3.5360231744939558E-01    1.4564544952250766E-01
H    1.2815244504761614E-01    3.6581563456741545E-01    2.0862687769893559E-01
H    1.7704441369385474E-01    3.6302846045104015E-01    1.6280333911110367E-01
H    1.5619369245268053E-01    3.5411907431767226E-01    6.8861215895530806E-02
H    9.0629724333782996E-02    3.5079983669987541E-01    5.1817258228247016E-02
Pb   -9.6835485235009647E-04    4.8505014962102461E-01   -3.0807073294626909E-03
I    1.2870764768070184E-01    4.8362216140659570E-01    1.3770941510858019E-02
I   -1.7543946950615473E-02    3.5427802438628708E-01   -6.8198142637298943E-03
I    1.2182936613872413E-02    4.6092315930876782E-01    1.1848318468761131E-01
C    3.8740933384378040E-01    3.6176123438701446E-01    1.3204492522468392E-01
N    3.7098509569860827E-01    3.9725222820312373E-01    9.8032535091800155E-02
N    3.5652195933670450E-01    3.4332126223581694E-01    1.6894976498141054E-01
H    4.2566209114346598E-01    3.4682939784488265E-01    1.3436633200080175E-01
H    3.9493550486472229E-01    4.0977591448012696E-01    6.9687966295550893E-02
H    3.3234312721045761E-01    4.0646749669091453E-01    9.4279640298011114E-02
H    3.1952768459346936E-01    3.6066842392356635E-01    1.7364984100792316E-01
H    3.6800514333392687E-01    3.1631200142840166E-01    1.9856708435309811E-01
Pb    2.4766443851674541E-01    4.8693755851580489E-01    1.4498427973944244E-02
I    3.8034575235641510E-01    5.0297603723328932E-01    1.0811663640126238E-02
I    2.5969560625660482E-01    3.6435763781345554E-01   -2.0309849534301046E-02
I    2.4007294092562353E-01    4.4946524324094267E-01    1.3183258727031710E-01
C    6.5774507802018756E-01    3.5701225629451527E-01    1.3363232308379208E-01
N    6.1511866011792549E-01    3.4712156743392530E-01    1.0682465146236964E-01
N    6.5511798079565453E-01    3.7653902072821321E-01    1.8207151343482672E-01
H    6.9383732624763061E-01    3.4698960033861354E-01    1.1223532511913693E-01
H    6.1658414759015734E-01    3.3209686853193571E-01    6.8149334671304823E-02
H    5.7812193811896306E-01    3.4938007625692663E-01    1.2018627720166458E-01
H    6.1983566871302698E-01    3.9173378406867448E-01    2.0121502829897711E-01
H    6.8759471862395449E-01    3.8237844849838748E-01    2.0464408986265228E-01
Pb    5.0544977405419744E-01    4.8789314641257503E-01    6.1214636147596388E-03
I    6.2847763617945818E-01    4.8024849046169121E-01   -1.7979765725368194E-02
I    4.8466989454453463E-01    3.5680876188247007E-01   -2.2184578043716970E-04
I    5.3801808571936294E-01    4.7335027744661623E-01    1.1610549587776778E-01
C    8.9944499578957782E-01    3.5169036072886062E-01    1.1290549962805779E-01
N    8.8283625599851068E-01    3.9522382232404951E-01    9.0727156344668658E-02
N    8.8870074637240026E-01    3.3932650258236763E-01    1.6337424868698777E-01
H    9.2861746122423672E-01    3.2709997738334007E-01    9.3607626428050622E-02
H    8.9172374003497323E-01    4.0130158973241148E-01    5.1591167061189457E-02
H    8.5786989275997194E-01    4.2218874727833339E-01    1.0703114043263774E-01
H    8.6782778247797088E-01    3.6400953026608479E-01    1.8919668652626942E-01
H    9.0237963503871088E-01    3.0285106380026022E-01    1.8069229337575871E-01
Pb    7.4357022810889006E-01    4.8240725938534268E-01   -5.0259694516928480E-03
I    8.8285249834200452E-01    5.0911815826242202E-01    6.0340141714899723E-03
I    7.8226423790671795E-01    3.6503811499000571E-01   -3.0979321215615606E-02
I    7.5071609612280799E-01    4.6382666260478556E-01    1.1640338086251813E-01
C    1.1842870966500102E-01    5.9519703852571104E-01    1.2088665198599718E-01
N    1.5471537045515804E-01    5.6778636712009478E-01    1.4516497704612386E-01
N    1.1018437551466756E-01    6.4576588666907020E-01    1.2803492596540328E-01
H    9.6612346265440824E-02    5.7707066385723726E-01    8.6908704969711731E-02
H    1.5920017708497455E-01    5.2798345281698489E-01    1.3746235967934714E-01
H    1.7467640484983896E-01    5.8434669367671577E-01    1.7665697495731633E-01
H    1.2657185236242388E-01    6.7013422753900664E-01    1.5653183167674131E-01
H    7.7538443105451216E-02    6.6376486248166011E-01    1.1249183142945840E-01
Pb    5.9486043223839716E-03    7.3338407105310355E-01   -6.7439788269876982E-03
I    1.2580682858844144E-01    7.2096302711019211E-01   -3.2947520270523271E-02
I    9.9476544407378995E-03    6.0945742392858793E-01    1.1374401690863250E-02
I   -1.7366159119287143E-03    7.5095463388320483E-01    1.2222161637001100E-01
C    3.6791667444937209E-01    6.1686402739229562E-01    1.3512839371492066E-01
N    4.0489425524800321E-01    6.1341314514544276E-01    9.7457119654628985E-02
N    3.1770643263648823E-01    6.1848568159281125E-01    1.3089254267872150E-01
H    3.8459733306940214E-01    6.1733186585114364E-01    1.7527701639163329E-01
H    4.4255701691344973E-01    6.2400207151770992E-01    1.1223699361002286E-01
H    3.9654819868570684E-01    6.2088766327182021E-01    5.8120562322409308E-02
H    2.9619107723329990E-01    6.2780311488307061E-01    9.5977424924216154E-02
H    2.9656081435650994E-01    6.1509975944582673E-01    1.6600941571140368E-01
Pb    2.5896840153313633E-01    7.3516133726187449E-01   -1.9087701693654626E-03
I    3.7635640738268877E-01    7.1160656169174075E-01    2.4288850097821247E-03
I    2.3392790713490472E-01    6.1447665913730298E-01    2.3849395524471136E-03
I    2.2606296019547584E-01    7.4013775757368161E-01    1.2701477683987805E-01
C    6.2707879799053745E-01    6.3880636398661306E-01    1.3482142881256681E-01
N    6.3089592688036145E-01    5.8619344605393786E-01    1.3942167826405036E-01
N    5.9618922775967131E-01    6.6064040053582340E-01    1.0089429293679651E-01
H    6.5136315986314441E-01    6.6429008878005769E-01    1.5710139992773936E-01
H    6.5919417366574862E-01    5.7573921504665138E-01    1.6657702770245647E-01
H    6.0663022624665663E-01    5.5562961532685384E-01    1.2672258603270925E-01
H    5.6934920012222567E-01    6.3941957000706373E-01    8.0084996726489388E-02
H    5.9552028313987448E-01    7.0117753039412256E-01    9.5139490359908915E-02
Pb    5.0345368461527817E-01    7.3473853117443666E-01    3.4626410743741520E-03
I    6.1886397597263221E-01    7.6494696208262980E-01    2.1775870439174729E-03
I    5.0553597012496276E-01    6.0905040936817090E-01   -1.2194276420668067E-02
I    4.7884117682002930E-01    7.4564773856273503E-01    1.2712117330314990E-01
C    8.7801151116891862E-01    6.0653309090424912E-01    1.0735395020596310E-01
N    8.6524949814076435E-01    6.4873909129385288E-01    1.3473812997251033E-01
N    8.7212647483760175E-01    5.5767276081234041E-01    1.2370590425822536E-01
H    8.8717541746602901E-01    6.1316830640880426E-01    6.5521342575832531E-02
H    8.7490689724862014E-01    6.8316838520369694E-01    1.1398539948775310E-01
H    8.5662682647651822E-01    6.5063547122066967E-01    1.7403364639001417E-01
H    8.6090291691055654E-01    5.4915084939999492E-01    1.6332633193717572E-01
H    8.7591829812182576E-01    5.2852033994660041E-01    9.6047920655212018E-02
Pb    7.5444321557861360E-01    7.2771911739858330E-01   -2.5771327199326625E-04
I    8.7690894382053453E-01    7.2172512995864913E-01   -2.6872884190318929E-03
I    7.2781025151593537E-01    6.0635201476923473E-01    2.1101734637816442E-02
I    7.3266828663149086E-01    7.7165716579515942E-01    1.1918985420285488E-01
C    1.3062498826182631E-01    8.6859925335019483E-01    1.0144916449219761E-01
N    1.2986965311671064E-01    8.3833619396835879E-01    5.8847148087248641E-02
N    1.1615974637926060E-01    8.5841787289233484E-01    1.5200419109712668E-01
H    1.5094534667807477E-01    9.0663970438370711E-01    9.4043217632759121E-02
H    1.4075029306486800E-01    8.5712616591183022E-01    2.5184076876860320E-02
H    1.1773102993245561E-01    7.9813526660325529E-01    6.2029504478126996E-02
H    9.3283542917293516E-02    8.2710625458286680E-01    1.6083229015670034E-01
H    1.2907448056870663E-01    8.8772072829408932E-01    1.7743871501223982E-01
Pb   -1.1341730214797115E-02    9.8142689210627854E-01   -7.1608611593957008E-03
I    1.2823332287060107E-01    9.7239904270935495E-01   -2.4393538821200503E-02
I   -2.1268638456335091E-02    8.5184664517112663E-01   -3.4532507029525886E-02
I    4.8069211609382510E-04    9.4195738112040461E-01    1.1275945182626403E-01
C    3.7097982300974319E-01    8.7751304379035877E-01    1.3390473026249453E-01
N    3.5705273672323734E-01    8.4399977390755365E-01    9.7220727672853835E-02
N    4.0068353246312810E-01    8.5952697495617081E-01    1.7412284885242527E-01
H    3.6414823175564387E-01    9.2140635872081467E-01    1.3310885552915211E-01
H    3.3744337356199344E-01    8.5654640579678498E-01    6.3676888722460773E-02
H    3.7066249085593678E-01    8.0422744002817703E-01    9.3393563854615988E-02
H    3.9873479465315737E-01    8.1753888500392924E-01    1.7807383514296685E-01
H    4.0481105304010812E-01    8.8319674665514292E-01    2.0616934625195310E-01
Pb    2.4007655220739763E-01    9.8832750501485345E-01   -8.3259934587552840E-03
I    3.7223969766212067E-01    1.0103769563155534E+00    4.6723272136006463E-03
I    2.6042992989983055E-01    8.5743952046400040E-01   -2.4163335082118730E-02
I    2.3513562573976723E-01    9.6178613064715091E-01    1.2563808817912878E-01
C    5.9600367402284460E-01    8.7941415654260269E-01    1.4165312869193633E-01
N    6.4729322867589334E-01    8.7420294206675131E-01    1.4851923389126517E-01
N    5.6814966700852265E-01    8.4929490400919683E-01    1.1218527852387637E-01
H    5.7506499416281787E-01    9.1233172672420537E-01    1.6047825964146747E-01
H    6.6822685446712948E-01    8.9990600298923540E-01    1.7269886782184293E-01
H    6.6468315395039101E-01    8.3848020409795621E-01    1.3984811567477190E-01
H    5.8474127225594086E-01    8.1999362082981120E-01    8.9515835847566130E-02
H    5.3176765822651040E-01    8.5953930365297071E-01    1.0153965762574507E-01
Pb    4.9045242204583045E-01    9.8273484431994496E-01   -3.1339427675637177E-03
I    6.1642982954532588E-01    9.6850086949675274E-01   -4.2432467971295811E-03
I    4.7235769005973133E-01    8.5916060724714782E-01    7.2001947155049505E-03
I    4.8157796497616606E-01    9.7791983852336617E-01    1.2474399407175986E-01
C    8.5190226103307354E-01    8.6763406491526407E-01    1.1803080337842675E-01
N    8.8244300360850092E-01    8.4815186040722979E-01    8.1488725312740790E-02
N    8.6776916154008354E-01    8.7540477121892346E-01    1.6624797017885834E-01
H    8.1173731821484041E-01    8.8210535647360033E-01    1.0538496984425988E-01
H    8.6922120037925610E-01    8.5123045846376266E-01    4.2687263125662143E-02
H    9.2072763258084611E-01    8.3978477851141475E-01    8.6026807622485116E-02
H    9.0482457946120831E-01    8.6563071810662584E-01    1.8036183317995952E-01
H    8.3839361542751489E-01    8.8443954999492069E-01    1.9363824959619624E-01
Pb    7.3431693148597443E-01    9.9313079433943829E-01   -2.5189516450675651E-03
I    8.7334424367145380E-01    1.0148162392718316E+00   -9.5316163417115179E-04
I    7.7249739179328358E-01    8.6517166558731040E-01   -2.2878676818805187E-02
I    7.5109416553966057E-01    9.9048640441577862E-01    1.2507364892385778E-01
C    1.2489670954858947E-01    1.3226571889527897E-01    3.6215829872937277E-01
N    1.0823776830981913E-01    9.4791981222892688E-02    3.2911131904386526E-01
N    1.0560082485980830E-01    1.3988387824222390E-01    4.0957932620657506E-01
H    1.5644464647433867E-01    1.5846641769113629E-01    3.4518367377328174E-01
H    1.3284745189738731E-01    8.5981720951417137E-02    2.9667685877378058E-01
H    8.0066939371136195E-02    6.4984858989125607E-02    3.3597154103865312E-01
H    7.5964859067349899E-02    1.1499931850404529E-01    4.2490699500967116E-01
H    1.1345801622624378E-01    1.7337219660246450E-01    4.3092816574288678E-01
Pb    7.7462382428960619E-04    2.3751841759441419E-01    2.5503506958351113E-01
I    1.2492776307818647E-01    2.4675308249455449E-01    2.4898699280348460E-01
I    1.1999726753397723E-02    1.1155201881913351E-01    2.2491632126326672E-01
I    7.1292048449330464E-03    2.6126110567927407E-01    3.7745354707611006E-01
C    3.9994177654540192E-01    1.1985858906716455E-01    3.6197642647977185E-01
N    3.7565085369429468E-01    1.0690690963390491E-01    3.1794878484048855E-01
N    3.8020828685117181E-01    1.2581835508006387E-01    4.0846155516975691E-01
H    4.4009529323764712E-01    1.2930238770833963E-01    3.5223845050367292E-01
H    3.9814633777637842E-01    1.0335356019255443E-01    2.8501604625305454E-01
H    3.3957027093313097E-01    9.3481092521468870E-02    3.1650183954322558E-01
H    3.4120161514019443E-01    1.1979643234236784E-01    4.2107809568818344E-01
H    4.0381219661155648E-01    1.3713384721305572E-01    4.3617170337684169E-01
Pb    2.5855510359705169E-01    2.4098417606891320E-01    2.4559871724872887E-01
I    3.8576022373374208E-01    2.3436878638934081E-01    2.5459022316545860E-01
I    2.4506946402064364E-01    1.2089077279844089E-01    2.2368471272054985E-01
I    2.4784254823785626E-01    2.1593785918816766E-01    3.7911182359815060E-01
C    6.0543648873763278E-01    1.0785948000452859E-01    3.9551673869966963E-01
N    6.3880040940650773E-01    8.0313875193245135E-02    3.6586753554225809E-01
N    6.1771662504467661E-01    1.2552167458372593E-01    4.4409400384696068E-01
H    5.6584124923989887E-01    1.1512891766897634E-01    3.7945720770006730E-01
H    6.2609263327077269E-01    7.1476195101736612E-02    3.2804103782931598E-01
H    6.7499912027783027E-01    6.3544758393275724E-02    3.7512104842601512E-01
H    6.5700725683450389E-01    1.2292811983330042E-01    4.5650534060116998E-01
H    5.8780548316846359E-01    1.3193183703374337E-01    4.6856193821115638E-01
Pb    5.0826313979253235E-01    2.3589334369395845E-01    2.6293674985644400E-01
I    6.2920526848666403E-01    2.3079978566417964E-01    2.6944545038814249E-01
I    5.0706364913297064E-01    1.0908894711114574E-01    2.5543563086252147E-01
I    4.9770033740844488E-01    2.1744962336513443E-01    3.8630451546914291E-01
C    8.9428737129496849E-01    1.0437658753305991E-01    3.7608521164064490E-01
N    8.4447282962289838E-01    1.0017230125432662E-01    3.8935924472462530E-01
N    9.2627939169764129E-01    1.3404911373047856E-01    4.0262953313902933E-01
H    9.0819455828502194E-01    8.1076801570925075E-02    3.4246991309412483E-01
H    8.1980918410727455E-01    7.6089263913177843E-02    3.6923494362563314E-01
H    8.2850986648928271E-01    1.2341799834708062E-01    4.1893602976468530E-01
H    9.1764928653206568E-01    1.5723616260887616E-01    4.3451468990449821E-01
H    9.6392507730208499E-01    1.3867385372955232E-01    3.9042203049296798E-01
Pb    7.6259039960752617E-01    2.5292057109225191E-01    2.5005678725930958E-01
I    8.7894572615414068E-01    2.1650402684364015E-01    2.7174362371269151E-01
I    7.4133812611908090E-01    1.2201653319934477E-01    2.6100964940300808E-01
I    7.5606593843162562E-01    2.3688159055031802E-01    3.8594733732664777E-01
C    1.2125996334615734E-01    3.5378769697593304E-01    3.4983383169812804E-01
N    1.3707762246892083E-01    3.1284663536684776E-01    3.7848799106722225E-01
N    1.1873189428614339E-01    4.0281476713106074E-01    3.6648810648998775E-01
H    1.0553488305081636E-01    3.4596428228325654E-01    3.1020411991626851E-01
H    1.3895914386335809E-01    2.7833970111531747E-01    3.5930573769465518E-01
H    1.5450033138155025E-01    3.1491058141498934E-01    4.1519056545703004E-01
H    1.1901453437041491E-01    4.1464176708446687E-01    4.0442955799082908E-01
H    1.0651778116190548E-01    4.3392384426242797E-01    3.4269055844565571E-01
Pb   -8.3138281115156514E-03    4.9055107130583775E-01    2.3514058254763406E-01
I    1.1475563662180258E-01    4.7979727888929452E-01    2.5215054513844865E-01
I   -3.9727700447929094E-03    3.6405352893025283E-01    2.4908810951512531E-01
I   -2.8526685895025466E-03    4.9556581248077503E-01    3.7235059449000135E-01
C    3.9007347359066341E-01    3.6614881376243069E-01    3.6848226430927750E-01
N    3.6910679247081141E-01    3.2692850161488396E-01    3.9150743691744810E-01
N    3.6874956267067993E-01    4.1448505136764596E-01    3.6880137036728117E-01
H    4.2726187941422761E-01    3.6144945768083842E-01    3.4628930296161581E-01
H    3.8473851670277182E-01    2.9107374257655716E-01    3.9673154858591603E-01
H    3.3131463522153076E-01    3.3315596612852910E-01    4.0715833082838854E-01
H    3.3369375828297071E-01    4.2138950551677123E-01    3.8970096953025724E-01
H    3.8001081480643772E-01    4.4584626896173740E-01    3.5039835938104152E-01
Pb    2.5370244121564151E-01    4.9064290405008870E-01    2.5535341208666551E-01
I    3.7327164826134102E-01    4.9716158638366897E-01    2.3296279538453812E-01
I    2.5111729341740602E-01    3.6426230855951897E-01    2.6221766709833505E-01
I    2.5024158602576635E-01    4.9864516762642663E-01    3.7930056772549509E-01
C    6.1909239601635158E-01    3.5812358789459214E-01    3.6230342887896200E-01
N    6.6213709940615229E-01    3.8642240055948496E-01    3.6717478637066592E-01
N    6.1299030492404405E-01    3.0883495053119614E-01    3.7741602181125961E-01
H    5.8330655712688950E-01    3.7514622277921822E-01    3.4433005015793100E-01
H    6.6024249845142124E-01    4.2790798215890230E-01    3.6237995293121245E-01
H    6.9847516354004002E-01    3.6924749373869881E-01    3.7098767929130949E-01
H    6.3886416299927518E-01    2.8746305411200085E-01    3.9983714871796278E-01
H    5.7695265298610776E-01    2.9143539257805434E-01    3.7001175293178051E-01
Pb    4.9599576826134600E-01    4.8577446394796409E-01    2.3712885545782197E-01
I    6.1814699673234097E-01    4.8793937355354761E-01    2.6490200231701311E-01
I    4.9827687348125616E-01    3.6515988925847437E-01    2.5091735761813533E-01
I    4.8735382993560711E-01    4.9829742056247439E-01    3.6338445172197559E-01
C    9.0473045015107822E-01    3.6015757779876734E-01    3.7857039370578099E-01
N    8.8190309492310115E-01    4.0787204228555934E-01    3.7698563664022672E-01
N    8.8353999862927757E-01    3.1523756173293965E-01    3.9364261610330870E-01
H    9.4608683044879083E-01    3.5764201826332642E-01    3.6969716763381066E-01
H    9.0547079124626806E-01    4.3799183136606262E-01    3.6464385894938395E-01
H    8.4219841119072458E-01    4.1360616691331153E-01    3.8387423990956743E-01
H    8.4485834712985164E-01    3.1121358134755245E-01    4.0589399115558028E-01
H    9.0630188413211332E-01    2.8145163902589165E-01    3.9476024445041147E-01
Pb    7.4486592070484925E-01    4.9549552844720246E-01    2.5684522251797032E-01
I    8.7470426078385066E-01    5.1030921295450560E-01    2.4853112776232711E-01
I    7.8643304230536248E-01    3.7712581129053319E-01    2.9069265071183448E-01
I    7.3157789912948956E-01    5.2179741527449564E-01    3.7909331531044221E-01
C    1.0924398273927323E-01    6.0121919164849225E-01    3.8305870165492867E-01
N    1.3271994794513642E-01    6.2511704397096213E-01    4.2414523635903678E-01
N    1.1874262375001268E-01    6.1190679709744500E-01    3.3273129004142088E-01
H    8.2149010160455616E-02    5.6877241261737488E-01    3.9513707759313771E-01
H    1.1729982953059991E-01    6.1564226057925042E-01    4.6180768924095028E-01
H    1.6235532751254114E-01    6.5392693409689806E-01    4.1833352502164994E-01
H    1.4302469579332577E-01    6.4222370027580000E-01    3.2194022367906527E-01
H    9.6771690845505770E-02    5.9595900077060293E-01    3.0336608965837453E-01
Pb    1.5211415852065533E-02    7.2993796952468870E-01    2.5317570283587298E-01
I    1.2819587640905647E-01    7.4301598236384880E-01    2.4136394621663651E-01
I    1.6003720874739773E-02    6.1335438367325112E-01    2.2760090118456175E-01
I    4.5031004787412510E-03    7.3351900540526482E-01    3.7935774087101443E-01
C    3.8347661728432275E-01    6.2573458621279421E-01    3.7606812915638499E-01
N    3.5197904027698745E-01    6.1022111746368712E-01    4.1435019892104713E-01
N    3.9222048855314756E-01    6.0291489889558392E-01    3.3036896557335682E-01
H    4.0516976190881260E-01    6.6269872893837867E-01    3.8579201099264721E-01
H    3.5461714458574006E-01    6.2887781173526902E-01    4.5115448270449909E-01