 # Version information for this restart file 
 # current date 2021-08-02 12:07:22.893
 # current working dir /projectsp/f_rcr78_1/MW/Hybrid_Perovskite/FAPbI3/300K/bak
 # Program compiled at                              Fri Sep 13 14:50:45 EDT 2019
 # Program compiled on                             slepner083.amarel.rutgers.edu
 # Program compiled for                                                    local
 # Source code revision number                                       git:e35496b
 &GLOBAL
   PRINT_LEVEL  LOW
   PROJECT_NAME FPB_WC3
   RUN_TYPE  MD
   WALLTIME 47:58:00
 &END GLOBAL
 &MOTION
   &MD
     ENSEMBLE  NVT
     STEPS  5000
     TIMESTEP     9.9999999999999989E-01
     STEP_START_VAL  7835
     TIME_START_VAL     7.8349999999991969E+03
     ECONS_START_VAL    -4.2642859995950075E+03
     TEMPERATURE     3.0000000000000000E+02
     COMVEL_TOL     1.0000000000000000E-08
     &THERMOSTAT
       TYPE  CSVR
       &CSVR
         TIMECON     9.9999999999999986E+01
         &THERMOSTAT_ENERGY
              -4.5777688596061561E-01
         &END THERMOSTAT_ENERGY
         &RNG_INIT
Wiener process for Thermostat # 1        1 F T F  -2.6527631115399918E-02         294297921.0        1308215691.0         239735044.0        3165487233.0        3516409388.0        1503126277.0             12345.0             12345.0             12345.0             12345.0             12345.0             12345.0             12345.0             12345.0             12345.0             12345.0             12345.0             12345.0
         &END RNG_INIT
       &END CSVR
     &END THERMOSTAT
     &AVERAGES  T
       &RESTART_AVERAGES
         ITIMES_START  1
         AVECPU     2.6633149062967567E+02
         AVEHUGONIOT     0.0000000000000000E+00
         AVETEMP_BARO     0.0000000000000000E+00
         AVEPOT    -4.2648736876237099E+03
         AVEKIN     1.0837296346182865E+00
         AVETEMP     2.9744836487925096E+02
         AVEKIN_QM     0.0000000000000000E+00
         AVETEMP_QM     0.0000000000000000E+00
         AVEVOL     1.0988776726607252E+05
         AVECELL_A     4.8433380039726181E+01
         AVECELL_B     4.7361225164589989E+01
         AVECELL_C     4.7905088028159447E+01
         AVEALPHA     9.0000000000000000E+01
         AVEBETA     9.0000000000000000E+01
         AVEGAMMA     9.0000000000000000E+01
         AVE_ECONS     5.7946939382726619E+00
         AVE_PRESS     0.0000000000000000E+00
         AVE_PXX     0.0000000000000000E+00
       &END RESTART_AVERAGES
     &END AVERAGES
   &END MD
   &PRINT
     &TRAJECTORY  SILENT
       &EACH
         MD  1
       &END EACH
     &END TRAJECTORY
     &VELOCITIES  SILENT
       &EACH
         MD  1
       &END EACH
     &END VELOCITIES
     &FORCES  SILENT
       &EACH
         MD  1
       &END EACH
     &END FORCES
     &STRESS  SILENT
       &EACH
         MD  1
       &END EACH
     &END STRESS
     &RESTART  SILENT
       BACKUP_COPIES  3
       &EACH
         MD  1
       &END EACH
     &END RESTART
     &RESTART_HISTORY  SILENT
       &EACH
         MD  5
       &END EACH
     &END RESTART_HISTORY
   &END PRINT
 &END MOTION
 &FORCE_EVAL
   METHOD  QS
   &DFT
     BASIS_SET_FILE_NAME BASIS_MOLOPT
     POTENTIAL_FILE_NAME GTH_POTENTIALS
     MULTIPLICITY  1
     CHARGE  0
     &SCF
       MAX_SCF  30
       EPS_SCF     1.0000000000000001E-05
       CHOLESKY  INVERSE
       SCF_GUESS  ATOMIC
       ADDED_MOS  20
       &DIAGONALIZATION  T
         ALGORITHM  STANDARD
       &END DIAGONALIZATION
       &OUTER_SCF  T
         EPS_SCF     1.0000000000000001E-05
         MAX_SCF  10
       &END OUTER_SCF
       &SMEAR  T
         METHOD  FERMI_DIRAC
         ELECTRONIC_TEMPERATURE     5.0000000000000007E+01
       &END SMEAR
       &MIXING  T
         METHOD  BROYDEN_MIXING
         ALPHA     4.0000000000000002E-01
         BETA     5.9999999999999998E-01
         NBUFFER  8
       &END MIXING
       &PRINT
         &RESTART  OFF
         &END RESTART
       &END PRINT
     &END SCF
     &QS
       EPS_DEFAULT     1.0000000000000000E-10
       EXTRAPOLATION  ASPC
       METHOD  GPW
     &END QS
     &MGRID
       NGRIDS  4
       CUTOFF     4.0000000000000000E+02
       REL_CUTOFF     8.0000000000000000E+01
     &END MGRID
     &XC
       DENSITY_CUTOFF     1.0000000000000000E-10
       GRADIENT_CUTOFF     1.0000000000000000E-10
       TAU_CUTOFF     1.0000000000000000E-10
       &XC_FUNCTIONAL  NO_SHORTCUT
         &PBE  T
         &END PBE
       &END XC_FUNCTIONAL
     &END XC
     &POISSON
       PERIODIC  XYZ
     &END POISSON
     &LOCALIZE  T
       EPS_LOCALIZATION     1.0000000000000001E-05
       METHOD  JACOBI
       &PRINT
         &WANNIER_CENTERS  SILENT
           IONS+CENTERS  T
         &END WANNIER_CENTERS
         &WANNIER_SPREADS  SILENT
         &END WANNIER_SPREADS
       &END PRINT
     &END LOCALIZE
     &REAL_TIME_PROPAGATION
       INITIAL_WFN  SCF_WFN
     &END REAL_TIME_PROPAGATION
     &PRINT
       &MO_CUBES  SILENT
         WRITE_CUBE  F
         NLUMO  4
         NHOMO  4
         &EACH
           MD  10
         &END EACH
       &END MO_CUBES
       &E_DENSITY_CUBE  OFF
       &END E_DENSITY_CUBE
     &END PRINT
   &END DFT
   &SUBSYS
     &CELL
       A     2.5629840852000001E+01    0.0000000000000000E+00    0.0000000000000000E+00
       B     0.0000000000000000E+00    2.5062480927999999E+01    0.0000000000000000E+00
       C     0.0000000000000000E+00    0.0000000000000000E+00    2.5350280760000000E+01
       MULTIPLE_UNIT_CELL  1 1 1
     &END CELL
     &COORD
C    1.3225474712350688E-01    1.1694325480802162E-01    1.5633166185407624E-01
N    1.1759027037642343E-01    1.6590454769839338E-01    1.4245547981502923E-01
N    1.4163972350735765E-01    7.8503771597942487E-02    1.2199541615863017E-01
H    1.3781717703629867E-01    1.0808981253133410E-01    2.0007037812478612E-01
H    1.1590063160053958E-01    1.9699489197635767E-01    1.6633354024011493E-01
H    1.1630937329589996E-01    1.7684318626041806E-01    1.0341736316126486E-01
H    1.3030599709397156E-01    7.7301276510342909E-02    8.1612740189695374E-02
H    1.4545775377179646E-01    3.9772247428976483E-02    1.3488100384287557E-01
Pb   -3.7872374933287894E-03    2.2949001346029363E-01    1.9286301916407375E-03
I    1.1949523844009598E-01    2.5447358682581500E-01    9.5296361723676126E-03
I    2.6637286488975769E-02    1.1502503969313702E-01    2.8518603758519400E-02
I   -5.4060773556034551E-03    2.5127614140780841E-01    1.3058624302256366E-01
C    3.8334847856265508E-01    1.1785769623935555E-01    1.4765043560083937E-01
N    3.3958620411287582E-01    1.0645839759144173E-01    1.2278550101309081E-01
N    4.2411642605198074E-01    1.3103645835305036E-01    1.1886791835204499E-01
H    3.8628923735447729E-01    1.2094498540549284E-01    1.9068378783591985E-01
H    3.0498917761555111E-01    1.0158942422301138E-01    1.4352546734093569E-01
H    3.4173914745669559E-01    9.9120141496801373E-02    8.2994844083216127E-02
H    4.2367239910686261E-01    1.2717678178573191E-01    7.9282068728380561E-02
H    4.5790672259609966E-01    1.3650043447311783E-01    1.4071403657894122E-01
Pb    2.5281965437946197E-01    2.4733776635088323E-01    1.7953424071083461E-02
I    3.6559775761170898E-01    2.0797545659051178E-01    2.9545563562937143E-03
I    2.2032767094904426E-01    1.2304897325369367E-01    1.4354062482624828E-02
I    2.8351025471821972E-01    2.4658684633127939E-01    1.3052213862954759E-01
C    6.2107978732393399E-01    1.0119456574562934E-01    1.1517139242733546E-01
N    6.1978414998338227E-01    8.7038479010444453E-02    1.6491070227601126E-01
N    6.2235667562566599E-01    1.5268150380487658E-01    1.0029046398229111E-01
H    6.2309921331790663E-01    7.1198554666363018E-02    8.5730390159602946E-02
H    6.2874091280872868E-01    4.7702267982224406E-02    1.7555253929574213E-01
H    6.1842893322403447E-01    1.1285347977930819E-01    1.9727735451712050E-01
H    6.1637233818037196E-01    1.8647217395916435E-01    1.2520547585075220E-01
H    6.1295205485332904E-01    1.6242891949631072E-01    6.1806918019854114E-02
Pb    4.8648082283176070E-01    2.4030009371238495E-01    1.1992528917398985E-02
I    6.0865187640185170E-01    2.6066984087063211E-01    1.2094001523577280E-03
I    5.2348334722236611E-01    1.2286407455784520E-01   -1.2909814910578490E-03
I    5.0449670094465693E-01    2.5707446601443601E-01    1.3367358735235924E-01
C    8.7653904554161877E-01    1.3580874333658832E-01    1.1824040157945331E-01
N    8.2769062130203697E-01    1.2001893375506092E-01    1.2235694309158314E-01
N    9.1527886258871061E-01    1.0496060588538922E-01    1.0254746755151588E-01
H    8.8667606898496154E-01    1.7724417406092918E-01    1.2609862119899379E-01
H    8.0356768469283801E-01    1.4611254316353625E-01    1.4032494629798356E-01
H    8.1439216129725811E-01    8.0974227150480776E-02    1.2182353735145031E-01
H    9.1244495488770005E-01    6.5089635789963532E-02    9.6660229066118847E-02
H    9.5253952815909881E-01    1.2241334331853873E-01    9.7345745237152129E-02
Pb    7.5068864111875566E-01    2.4875370426052160E-01    1.1391768409224063E-02
I    8.7258501226665375E-01    1.9910237467410849E-01   -8.9779100757305039E-03
I    7.1978460262704358E-01    1.2794920486616129E-01   -1.5580096185027729E-02
I    7.2839573911866329E-01    2.6809905036023163E-01    1.2596670175316588E-01
C    1.3197420165956603E-01    3.7246533227342538E-01    1.3326274118720746E-01
N    1.6999905482191979E-01    3.4286691652985235E-01    1.5160619181416821E-01
N    1.0535534639214765E-01    3.7030738943565555E-01    8.9245000552511680E-02
H    1.1495563199386696E-01    4.0345466428537519E-01    1.5928285328909603E-01
H    1.8398718541439335E-01    3.5136989916948502E-01    1.8708408282148009E-01
H    1.8524677793741193E-01    3.1138471685577307E-01    1.3260998973717419E-01
H    1.1258432367360141E-01    3.3882510229119972E-01    6.4102102159195040E-02
H    7.6787194584387264E-02    3.9871271532750441E-01    8.2217107755053448E-02
Pb   -1.5522660804853804E-02    4.9369192557631031E-01   -9.6023595139919302E-03
I    1.1150823033653083E-01    4.8872232932412707E-01    3.2433150465788711E-03
I   -1.9599876494134753E-02    3.6412950913068470E-01   -2.3480874451845306E-02
I   -8.9733939973525995E-03    4.4706406377146529E-01    1.1159358971817614E-01
C    3.9938583328459409E-01    3.5689021858694225E-01    1.3367713028314765E-01
N    3.8031981996000264E-01    3.6767517159008778E-01    8.6517930061494719E-02
N    3.7043110836862669E-01    3.5417865089987860E-01    1.7823649037774195E-01
H    4.4128520374492769E-01    3.5696031864145561E-01    1.3386388515627443E-01
H    4.0656432375962270E-01    3.7262613082685903E-01    5.6713678448779677E-02
H    3.4079833217914418E-01    3.6614532347156914E-01    7.8631380404162385E-02
H    3.3201013793303707E-01    3.6615722726128197E-01    1.8095163962788169E-01
H    3.8820852016493096E-01    3.4406980835383799E-01    2.1299518080408048E-01
Pb    2.3494653961221465E-01    4.9062188985012894E-01    1.2369926019941500E-03
I    3.7429484021686099E-01    5.0938920618047356E-01    8.6694867868228865E-06
I    2.7915061867800661E-01    3.6882665024915745E-01   -9.0333812528226778E-03
I    2.4743007481232443E-01    4.6786069575092049E-01    1.2317304831195001E-01
C    6.2796432970957927E-01    3.8905955963739680E-01    1.3836402634126008E-01
N    6.1334706844504761E-01    3.7684811336676743E-01    9.0092083826645603E-02
N    6.0717185300657728E-01    3.6355472518097021E-01    1.7943760360164557E-01
H    6.5803664844158627E-01    4.1745742555167514E-01    1.4731836528273545E-01
H    6.2580325000926362E-01    3.9462775964205721E-01    5.7726944893114307E-02
H    5.8811550973689997E-01    3.4632255850056920E-01    7.9952902677379034E-02
H    5.8159340311056607E-01    3.3258764971056476E-01    1.7175067163277979E-01
H    6.0599887729784752E-01    3.7871901446043105E-01    2.1674147224419113E-01
Pb    4.9161892165250759E-01    4.9082607320828237E-01   -7.3107353238659693E-03
I    6.2677080994673084E-01    4.7171223067651979E-01   -2.1537037447229932E-02
I    4.8009699666256789E-01    3.7043546142111256E-01   -1.7236056602233235E-02
I    4.9025206034490482E-01    4.6922916220210498E-01    1.2137800192608192E-01
C    8.8344209435118670E-01    3.4824256491198563E-01    1.1807877307700339E-01
N    8.6817186216953679E-01    3.7175148563384280E-01    7.4327506334827889E-02
N    8.5349754672321199E-01    3.3834097720575917E-01    1.5716280740994121E-01
H    9.2611732286109605E-01    3.3908453961143975E-01    1.2065831082826586E-01
H    8.9376969503084813E-01    3.6833303777815185E-01    4.2204251845667805E-02
H    8.3087789209051877E-01    3.8312918944651292E-01    6.8223443351866420E-02
H    8.1457978383071472E-01    3.4561151110690980E-01    1.6147451789850858E-01
H    8.7123736303541977E-01    3.2034110422252654E-01    1.8898197106658263E-01
Pb    7.3763297799325100E-01    4.9581268299661835E-01    2.5305545242469887E-03
I    8.7065191575505130E-01    4.9045995074494475E-01   -4.7641031395113519E-02
I    7.6000781948700724E-01    3.7440912426065331E-01   -2.3762475547896265E-02
I    7.5682858184466273E-01    4.6557743137939189E-01    1.2150476308148585E-01
C    1.1689928765700262E-01    6.0086996380830371E-01    1.4307706895266242E-01
N    1.2030600362916417E-01    5.5332813617261656E-01    1.2229014979539729E-01
N    1.0621366036035979E-01    6.4388927692192732E-01    1.1559181224333689E-01
H    1.3031958916261868E-01    6.0731063570381449E-01    1.8481500161179198E-01
H    1.2348915138933733E-01    5.2337007487213216E-01    1.5038430659740601E-01
H    1.1414948523634995E-01    5.4287207862540343E-01    8.2236900044212441E-02
H    9.1543917837894090E-02    6.4457039145849870E-01    7.7893522647940555E-02
H    1.0272195190081741E-01    6.7743804899844384E-01    1.3813194629929712E-01
Pb    8.1099162751688634E-03    7.5307721311367914E-01   -8.4838159574912187E-03
I    1.2300322657185148E-01    7.6346241504386358E-01    7.4861059278387449E-03
I    1.9452939698621659E-02    6.2827742404564113E-01   -5.6177082935055210E-03
I   -6.7575299872265010E-03    7.6127047486703792E-01    1.2097799540320676E-01
C    3.4798466559136498E-01    6.2950601121000860E-01    1.5763700934178770E-01
N    3.9671596108230944E-01    6.4781534067641133E-01    1.5603508758338383E-01
N    3.3291396075060864E-01    5.9376582314499682E-01    1.2031394430800048E-01
H    3.1812471220743477E-01    6.3843559189817645E-01    1.8794967982289232E-01
H    4.0879009642166725E-01    6.7490424072807653E-01    1.8288814095691489E-01
H    4.1862011766250229E-01    6.4054080920304102E-01    1.2354172170078838E-01
H    3.5624811930862954E-01    5.7862131693169538E-01    9.1060680192216831E-02
H    2.9262685658797105E-01    5.8510063679843305E-01    1.1724526987070945E-01
Pb    2.4888408912589904E-01    7.3610307832266386E-01   -1.0256170955558801E-02
I    3.7481579489470362E-01    7.1145173053296973E-01    8.8019149503859081E-03
I    2.2090155535105729E-01    6.1876159365339978E-01    1.0895914903591148E-02
I    2.3055206283480137E-01    7.4608022872156532E-01    1.1819403322250270E-01
C    6.2333828769118149E-01    6.1987571665951435E-01    1.2274231534261136E-01
N    6.0502410209524415E-01    5.7249936788984745E-01    1.0514596471457331E-01
N    6.0057256462311226E-01    6.6607662214013197E-01    1.2003215973735208E-01
H    6.6021953294187874E-01    6.1784314244336380E-01    1.4895849354759913E-01
H    6.1473420267726531E-01    5.4019873868998547E-01    1.2549563556290710E-01
H    5.6703666744815218E-01    5.7226177942791612E-01    9.3670251925132633E-02
H    5.6414718518919027E-01    6.7694054529289849E-01    1.0569963220460402E-01
H    6.1666817725676237E-01    6.9498870991682904E-01    1.4157185108738946E-01
Pb    4.9446383627010648E-01    7.4383963425463984E-01    6.5097391713853838E-03
I    6.2155730832902700E-01    7.4820728103710710E-01    1.0674984181004155E-02
I    4.9900480120784391E-01    6.1691232160386544E-01    3.0662049037904933E-02
I    4.8963351745894418E-01    7.5743304808014533E-01    1.2543563762493914E-01
C    9.0035110529861340E-01    6.0245867458388147E-01    1.1582561548200539E-01
N    9.1084229041142095E-01    6.5490894619496398E-01    1.2131700005560103E-01
N    8.7777826129288994E-01    5.7526987288140574E-01    1.5481024989020170E-01
H    9.0793981539550861E-01    5.8083511812272337E-01    7.9917628145913078E-02
H    9.2466145276378786E-01    6.7564043526329065E-01    9.0132949099157936E-02
H    9.0438441755760512E-01    6.7965726239531798E-01    1.5344899860716368E-01
H    8.6391166734877134E-01    5.9597677792152337E-01    1.8632016398912679E-01
H    8.7301095687502017E-01    5.3524198694513481E-01    1.5583286120632575E-01
Pb    7.5278098483361566E-01    7.3024928797871747E-01    3.3527974436412815E-03
I    8.7977451715401522E-01    7.2868909660448256E-01   -1.1439237360705782E-03
I    7.6749493263788016E-01    6.1674951211280038E-01    3.9669413492656416E-02
I    7.7263999726420274E-01    7.6135909113202549E-01    1.2142616013339638E-01
C    1.2300711492719955E-01    8.8844517387365074E-01    1.3548214682602586E-01
N    8.6449164105925888E-02    8.5934546180150828E-01    1.1386259048577710E-01
N    1.7296793552570169E-01    8.7394094832589542E-01    1.3994343829404687E-01
H    1.0952864673770316E-01    9.2839855178071173E-01    1.4607600672558710E-01
H    5.1007517063012965E-02    8.7868077592419602E-01    1.0813294887839162E-01
H    9.2068595364496894E-02    8.2205460596594671E-01    9.8757029518817291E-02
H    1.8729640693994484E-01    8.3856981312891765E-01    1.2847380742266507E-01
H    1.9591289083425534E-01    8.9434733159815571E-01    1.6696604433328466E-01
Pb    1.9362177501923230E-02    9.9280985505345343E-01   -1.1262471604405085E-02
I    1.4034378727832908E-01    9.7148287708401360E-01    2.1951386260174593E-02
I   -1.8307819525510072E-02    8.7512859254500330E-01   -1.3404592931551614E-02
I    9.3792419600762181E-03    9.8265675880795178E-01    1.2287877285669298E-01
C    3.7285563910977748E-01    8.5220601822854591E-01    1.3478842364142132E-01
N    4.0108860853420808E-01    8.9327548471330021E-01    1.1967398653237332E-01
N    3.5175773371378977E-01    8.1651973403764044E-01    1.0074915745440247E-01
H    3.6740941255620752E-01    8.4898681237514917E-01    1.7638717578689897E-01
H    4.1052123674247570E-01    9.2015894962260425E-01    1.4600412242763874E-01
H    4.1961046795289053E-01    8.9733874740488773E-01    8.3421513152033111E-02
H    3.6517975322904700E-01    8.0849172959925486E-01    6.4039019339032513E-02
H    3.2906623613204333E-01    7.8631178838474869E-01    1.1450486419671244E-01
Pb    2.5969205293819225E-01    9.9863319044160748E-01   -3.6568952712143958E-03
I    3.7949312200676166E-01    1.0330879239792843E+00    4.6074470530420644E-03
I    2.9580453153415170E-01    8.8105761741345401E-01   -1.7079693572748522E-02
I    2.7109220734834805E-01    9.8222490463074141E-01    1.2425573532608268E-01
C    6.2885612418137449E-01    8.8052658390254113E-01    1.2519357482552645E-01
N    6.6223393675230824E-01    8.4653476528656546E-01    1.0727149151166664E-01
N    6.1326297740756230E-01    8.8023006192304343E-01    1.7543025007962035E-01
H    6.1583340580447044E-01    9.1216722434969566E-01    9.7735155929537160E-02
H    6.7745375674350261E-01    8.5198840732089598E-01    7.0083490573555077E-02
H    6.8459753177260352E-01    8.2311883017220233E-01    1.3066454663048435E-01
H    6.2418416116795772E-01    8.4894712923113402E-01    1.9912970266197225E-01
H    5.8611124386560365E-01    9.0174822910673857E-01    1.9279477563552003E-01
Pb    5.0868405595735788E-01    9.9123883630612031E-01    2.7219478484703766E-03
I    6.2867433324434041E-01    9.8541113963540428E-01    2.2590999932039682E-02
I    5.0041019699199496E-01    8.7426562331356206E-01    1.2307529599885554E-02
I    4.9725855032633931E-01    9.9640289901436863E-01    1.2829117479536253E-01
C    8.7870664347745375E-01    8.6779535511136907E-01    1.2232949565789221E-01
N    8.9517233057404244E-01    9.1308333062969371E-01    1.0431655263265059E-01
N    8.9112304980316126E-01    8.5186771037424724E-01    1.7077924995712010E-01
H    8.5143801543111275E-01    8.4060678277359302E-01    9.9130685142052921E-02
H    8.8250798912452322E-01    9.2915788863259319E-01    6.9575838223154218E-02
H    9.1958265996080468E-01    9.3816985090619887E-01    1.2428448420606249E-01
H    9.1614125664862101E-01    8.7142075501332295E-01    1.9418027523967665E-01
H    8.8247495655459796E-01    8.1271932403156588E-01    1.8321366185793764E-01
Pb    7.6528764167394037E-01    1.0071225301125868E+00   -4.4087635328911847E-03
I    8.8206905061996110E-01    1.0170603672431777E+00    9.6094115322030924E-03
I    7.5017774994547082E-01    8.7416550023858874E-01    2.2010538919265731E-03
I    7.5055686852075587E-01    9.7742554507672119E-01    1.2314607829555915E-01
C    1.0241418475084194E-01    1.2755588913600932E-01    3.7442532979547533E-01
N    1.3499345956900005E-01    1.4166136860220618E-01    3.3652795785923717E-01
N    1.1979229737726252E-01    1.1534258709317813E-01    4.2278072286802171E-01
H    6.1741083799885091E-02    1.1743235950794813E-01    3.6557607157964411E-01
H    1.2427278113180698E-01    1.5972781047763837E-01    3.0356480340332515E-01
H    1.7179141391201952E-01    1.5604167557282314E-01    3.4735374096461757E-01
H    1.5874759247846143E-01    1.2012593474295676E-01    4.3487922889227970E-01
H    9.0682465280219768E-02    1.0869645988564013E-01    4.5267973719001114E-01
Pb   -7.0659166854601637E-03    2.4156264752683904E-01    2.6179450100130169E-01
I    1.2482891240944258E-01    2.5298823303597240E-01    2.5670996620962683E-01
I   -8.2143899522206304E-04    1.1975689185819736E-01    2.5437592673587789E-01
I    4.1453979798885404E-04    2.2273511337854979E-01    3.9141013791758933E-01
C    4.0171641042729295E-01    1.0822551146236323E-01    3.6823951598051791E-01
N    3.8294340690223877E-01    6.3608108462452836E-02    3.5299321533595746E-01
N    3.7753082705737173E-01    1.4224507132023498E-01    3.9943567455832163E-01
H    4.3866196017803133E-01    1.2144938407018101E-01    3.5231104432525417E-01
H    4.0702481101871230E-01    4.0263671945835300E-02    3.2854464646608683E-01
H    3.4875306675505396E-01    4.6787717159295451E-02    3.6335229931279850E-01
H    3.4310513051173613E-01    1.3646645749566524E-01    4.1539706002625981E-01
H    3.9680872113163934E-01    1.7530695473816640E-01    4.1109489526014609E-01
Pb    2.4326813201064174E-01    2.3559705300393102E-01    2.5301518778900989E-01
I    3.6916383023824234E-01    2.4270900930678038E-01    2.8461241602395654E-01
I    2.5465817759281206E-01    1.1659468578905038E-01    2.3793819341058628E-01
I    2.4683636771229089E-01    2.0436102979393572E-01    3.8218725418473937E-01
C    6.3761045112054981E-01    1.3165907794266746E-01    3.8373206550613131E-01
N    6.2961382802300947E-01    9.5645851344453567E-02    3.4692884360917819E-01
N    6.2725210440348333E-01    1.2567473357935791E-01    4.3490672117976392E-01
H    6.5106594029137699E-01    1.7089484893863338E-01    3.7066160065773174E-01
H    6.4304776222980531E-01    9.7413034573419974E-02    3.0933053113359765E-01
H    6.2070992767023503E-01    6.0101245820308805E-02    3.6197793607842849E-01
H    6.1921311804301271E-01    8.9310618221685192E-02    4.5117739771539211E-01
H    6.3175438929026095E-01    1.5898408291021460E-01    4.5781796306927791E-01
Pb    4.9527048814632341E-01    2.2988104809715376E-01    2.6908670464812612E-01
I    6.2142516279181426E-01    2.0479634593124760E-01    2.6058381323814933E-01
I    4.8876928556065713E-01    1.1249582902807158E-01    2.4816953329497754E-01
I    5.0552873925771913E-01    2.0429434082269929E-01    3.8952627992116701E-01
C    8.7770018927402671E-01    1.2917730372454997E-01    3.9632026099062534E-01
N    9.0394835514711425E-01    1.0647740371119110E-01    4.3487486188303925E-01
N    8.9261870686750711E-01    1.2594260481180067E-01    3.4694082039665114E-01
H    8.4400001845776718E-01    1.5245227088418620E-01    4.0418959368990393E-01
H    8.9353593688816368E-01    1.1528387106505059E-01    4.7329670394687684E-01
H    9.3743684764059831E-01    8.5212514374507914E-02    4.2865178992979031E-01
H    9.2211386903781534E-01    1.0457057893801462E-01    3.3268456325226153E-01
H    8.6860156655093590E-01    1.4652895036737063E-01    3.2200204415151834E-01
Pb    7.3771342502367165E-01    2.3908713603274734E-01    2.4994956502580945E-01
I    8.7190256662146814E-01    2.3426700144130727E-01    2.6081988599292166E-01
I    7.4385172611250050E-01    1.1256264131677320E-01    2.4133564739276267E-01
I    7.5332456107003554E-01    2.2350453503833370E-01    3.7565088487831372E-01
C    1.2423777015972831E-01    3.7634934478707049E-01    3.6485364636445111E-01
N    7.5336258194757366E-02    3.6336283678855130E-01    3.7637222710617052E-01
N    1.6446645850513575E-01    3.4481206612381926E-01    3.5548031979073208E-01
H    1.2877854529524724E-01    4.1881996394141735E-01    3.5939041960348944E-01
H    4.7106370682428206E-02    3.9175804567826578E-01    3.8061612980890791E-01
H    6.2287541742698765E-02    3.2474121016070190E-01    3.7804741125730801E-01
H    1.6447176955439702E-01    3.0665175345827766E-01    3.6426009800133563E-01
H    1.9477024532666060E-01    3.6632054651270363E-01    3.4228857134712137E-01
Pb   -1.1194317298208922E-02    4.8179631656692434E-01    2.3200915596614341E-01
I    1.1219854342752131E-01    4.6840922547999647E-01    2.3755338973906651E-01
I   -2.2701698598454785E-02    3.5842104493320920E-01    2.5322322047790152E-01
I    2.0743294920054132E-03    4.9107895922804012E-01    3.6880844295384413E-01
C    3.8396662067696302E-01    3.7588214186643554E-01    3.6174067199797932E-01
N    3.9408209298555691E-01    3.3510130883248784E-01    3.9479453070722381E-01
N    3.8619422944067322E-01    4.2684702697374616E-01    3.7624029638786921E-01
H    3.6628443491751161E-01    3.7045135562271891E-01    3.2254408578511257E-01
H    3.9209346277107804E-01    2.9920899463180922E-01    3.7801820916382434E-01
H    4.0876071857994029E-01    3.3615780294424197E-01    4.3111599602273826E-01
H    3.9384479234269160E-01    4.3786151137493734E-01    4.1444625210592456E-01
H    3.7224313921216473E-01    4.5312434252820893E-01    3.4996627861152552E-01
Pb    2.4032915663375512E-01    4.8567946545140217E-01    2.4575878473577492E-01
I    3.6593038895216223E-01    5.1268094334666647E-01    2.4798746927162751E-01
I    2.5997634889536037E-01    3.6543518459286650E-01    2.6763853160183315E-01
I    2.3324997544339759E-01    5.0472516322075744E-01    3.7892692395003497E-01
C    6.1614593835462594E-01    3.5792142129199372E-01    3.7287946627203084E-01
N    6.4536192610150778E-01    4.0033616457944254E-01    3.6498572825045739E-01
N    6.2711631735256501E-01    3.0618753496000123E-01    3.6226373822330538E-01
H    5.7901103358598993E-01    3.6078127320530046E-01    3.9391667754864984E-01
H    6.3406105445567118E-01    4.3351988419405418E-01    3.8538228337089320E-01
H    6.8267993512281699E-01    3.9418581478973119E-01    3.4988734207659300E-01
H    6.6154044237565812E-01    2.9453124998795344E-01    3.4905885225238148E-01
H    5.9972644137608866E-01    2.7669711075118264E-01    3.7287774883288427E-01
Pb    4.8671076702467719E-01    4.9360679894127008E-01    2.4370871026349472E-01
I    6.1778004486621996E-01    4.9413321338235672E-01    2.2834597641496501E-01
I    4.8798114252535385E-01    3.7188750954622446E-01    2.7419856005058979E-01
I    5.0095967707600986E-01    5.1051154180345226E-01    3.6939133267481528E-01
C    8.7091705061944369E-01    3.6106944200909596E-01    3.8395962037686909E-01
N    8.7184975248718177E-01    3.5477381986028128E-01    3.3274819690393420E-01
N    8.7994712870749969E-01    3.2060710126262537E-01    4.1712876811762523E-01
H    8.6537595531980005E-01    4.0176706271300250E-01    3.9791960945616256E-01
H    8.6406226380098017E-01    3.8684725952173121E-01    3.0664997713525782E-01
H    8.7847649990101884E-01    3.1778977831971683E-01    3.1570472309450248E-01
H    8.8479686279345204E-01    2.8333171568535298E-01    4.0079328424213956E-01
H    8.7066998046615030E-01    3.2456361158340152E-01    4.5701703319502662E-01
Pb    7.3715354923078791E-01    4.8834450474586633E-01    2.4192129210611177E-01
I    8.7202225968208136E-01    4.7096283736994798E-01    2.6345602314739602E-01
I    7.4165202581369183E-01    3.6399712780011856E-01    2.7321858897811069E-01
I    7.4562395185218977E-01    5.1233001716259929E-01    3.6298938293296301E-01
C    1.0259565709096011E-01    6.0357922712705947E-01    3.8113202931507434E-01
N    1.2546974849497150E-01    6.0968245009322086E-01    4.2565607201598954E-01
N    1.1861152721573708E-01    6.0689200163599244E-01    3.3151501145744616E-01
H    6.2067909779712688E-02    5.9560039182911095E-01    3.8610911071707688E-01
H    1.0198971947464702E-01    6.0133006998750749E-01    4.5756023682878166E-01
H    1.6266917777042700E-01    6.1587984539772422E-01    4.3473708310470149E-01
H    1.5738665503077937E-01    6.0481175489158823E-01    3.2199412355298801E-01
H    9.1105464124286620E-02    6.0622356250103460E-01    3.0280237155361944E-01
Pb   -1.0023825095527926E-03    7.2805214553412456E-01    2.5871844217070444E-01
I    1.1677815069513812E-01    7.6076094433810393E-01    2.3661505538316843E-01
I    2.1979269774524354E-02    6.0683679370702892E-01    2.4269449252295763E-01
I    1.2015862954425824E-02    7.3764939994342160E-01    3.7464386786300780E-01
C    3.7283886610839106E-01    6.1526126226170996E-01    3.6262881803710179E-01
N    4.2415703531215121E-01    6.2275536270070009E-01    3.6962774300043710E-01
N    3.3851435987765621E-01    5.9310377619573351E-01    3.9417389404790998E-01
H    3.5691386968531058E-01    6.2145468753044419E-01    3.2293196213459552E-01
H    4.4410891594013469E-01    6.3517515362738297E-01    3.3795145655340220E-01