 # Version information for this restart file 
 # current date 2021-09-10 19:45:27.007
 # current working dir /projectsp/f_rcr78_1/MW/Hybrid_Perovskite/FAPbI3/300K/MLWFC3
 # Program compiled at                              Fri Sep 13 14:50:45 EDT 2019
 # Program compiled on                             slepner083.amarel.rutgers.edu
 # Program compiled for                                                    local
 # Source code revision number                                       git:e35496b
 &GLOBAL
   PRINT_LEVEL  LOW
   PROJECT_NAME FPB_MD_300
   RUN_TYPE  MD
   WALLTIME 47:58:00
 &END GLOBAL
 &MOTION
   &MD
     ENSEMBLE  NVT
     STEPS  5000
     TIMESTEP     9.9999999999999989E-01
     STEP_START_VAL  9335
     TIME_START_VAL     9.3349999999989886E+03
     ECONS_START_VAL    -4.2642859995950075E+03
     TEMPERATURE     3.0000000000000000E+02
     COMVEL_TOL     1.0000000000000000E-08
     &THERMOSTAT
       TYPE  CSVR
       &CSVR
         TIMECON     9.9999999999999986E+01
         &THERMOSTAT_ENERGY
              -4.6719177479490226E-01
         &END THERMOSTAT_ENERGY
         &RNG_INIT
Wiener process for Thermostat # 1        1 F T F   2.6844064423300895E-01        3394555759.0         317247364.0         639990529.0        1880408763.0        1726283243.0        2426359812.0             12345.0             12345.0             12345.0             12345.0             12345.0             12345.0             12345.0             12345.0             12345.0             12345.0             12345.0             12345.0
         &END RNG_INIT
       &END CSVR
     &END THERMOSTAT
     &AVERAGES  T
       &RESTART_AVERAGES
         ITIMES_START  1
         AVECPU     4.2783149079649996E+02
         AVEHUGONIOT     0.0000000000000000E+00
         AVETEMP_BARO     0.0000000000000000E+00
         AVEPOT    -4.2648771515572680E+03
         AVEKIN     1.0837640079941868E+00
         AVETEMP     2.9745779924750110E+02
         AVEKIN_QM     0.0000000000000000E+00
         AVETEMP_QM     0.0000000000000000E+00
         AVEVOL     1.0988776726607233E+05
         AVECELL_A     4.8433380039726032E+01
         AVECELL_B     4.7361225164589960E+01
         AVECELL_C     4.7905088028159518E+01
         AVEALPHA     9.0000000000000000E+01
         AVEBETA     9.0000000000000000E+01
         AVEGAMMA     9.0000000000000000E+01
         AVE_ECONS     5.8010745880787686E+00
         AVE_PRESS     0.0000000000000000E+00
         AVE_PXX     0.0000000000000000E+00
       &END RESTART_AVERAGES
     &END AVERAGES
   &END MD
   &PRINT
     &TRAJECTORY  SILENT
       &EACH
         MD  1
       &END EACH
     &END TRAJECTORY
     &VELOCITIES  SILENT
       &EACH
         MD  1
       &END EACH
     &END VELOCITIES
     &FORCES  SILENT
       &EACH
         MD  1
       &END EACH
     &END FORCES
     &STRESS  SILENT
       &EACH
         MD  1
       &END EACH
     &END STRESS
     &RESTART  SILENT
       BACKUP_COPIES  3
       &EACH
         MD  1
       &END EACH
     &END RESTART
     &RESTART_HISTORY  SILENT
       &EACH
         MD  5
       &END EACH
     &END RESTART_HISTORY
   &END PRINT
 &END MOTION
 &FORCE_EVAL
   METHOD  QS
   &DFT
     BASIS_SET_FILE_NAME BASIS_MOLOPT
     POTENTIAL_FILE_NAME GTH_POTENTIALS
     MULTIPLICITY  1
     CHARGE  0
     &SCF
       MAX_SCF  30
       EPS_SCF     1.0000000000000001E-05
       CHOLESKY  INVERSE
       SCF_GUESS  ATOMIC
       ADDED_MOS  20
       &DIAGONALIZATION  T
         ALGORITHM  STANDARD
       &END DIAGONALIZATION
       &OUTER_SCF  T
         EPS_SCF     1.0000000000000001E-05
         MAX_SCF  10
       &END OUTER_SCF
       &SMEAR  T
         METHOD  FERMI_DIRAC
         ELECTRONIC_TEMPERATURE     5.0000000000000007E+01
       &END SMEAR
       &MIXING  T
         METHOD  BROYDEN_MIXING
         ALPHA     4.0000000000000002E-01
         BETA     5.9999999999999998E-01
         NBUFFER  8
       &END MIXING
       &PRINT
         &RESTART  OFF
         &END RESTART
       &END PRINT
     &END SCF
     &QS
       EPS_DEFAULT     1.0000000000000000E-10
       EXTRAPOLATION  ASPC
       METHOD  GPW
     &END QS
     &MGRID
       NGRIDS  4
       CUTOFF     4.0000000000000000E+02
       REL_CUTOFF     8.0000000000000000E+01
     &END MGRID
     &XC
       DENSITY_CUTOFF     1.0000000000000000E-10
       GRADIENT_CUTOFF     1.0000000000000000E-10
       TAU_CUTOFF     1.0000000000000000E-10
       &XC_FUNCTIONAL  NO_SHORTCUT
         &PBE  T
         &END PBE
       &END XC_FUNCTIONAL
     &END XC
     &POISSON
       PERIODIC  XYZ
     &END POISSON
     &LOCALIZE  T
       EPS_LOCALIZATION     1.0000000000000001E-05
       METHOD  JACOBI
       &PRINT
         &WANNIER_CENTERS  SILENT
           IONS+CENTERS  T
         &END WANNIER_CENTERS
         &WANNIER_SPREADS  SILENT
         &END WANNIER_SPREADS
       &END PRINT
     &END LOCALIZE
     &REAL_TIME_PROPAGATION
       INITIAL_WFN  SCF_WFN
     &END REAL_TIME_PROPAGATION
     &PRINT
       &MO_CUBES  SILENT
         WRITE_CUBE  F
         NLUMO  4
         NHOMO  4
         &EACH
           MD  10
         &END EACH
       &END MO_CUBES
       &E_DENSITY_CUBE  OFF
       &END E_DENSITY_CUBE
     &END PRINT
   &END DFT
   &SUBSYS
     &CELL
       A     2.5629840852000001E+01    0.0000000000000000E+00    0.0000000000000000E+00
       B     0.0000000000000000E+00    2.5062480927999999E+01    0.0000000000000000E+00
       C     0.0000000000000000E+00    0.0000000000000000E+00    2.5350280760000000E+01
       MULTIPLE_UNIT_CELL  1 1 1
     &END CELL
     &COORD
C    1.2931333592655395E-01    1.2548656109681375E-01    1.4452617002203622E-01
N    1.2597040212247204E-01    1.6127178536623407E-01    1.0702037462888185E-01
N    1.2548115279512187E-01    7.2811282794979379E-02    1.3556232616394900E-01
H    1.3551089401215330E-01    1.3862038338448124E-01    1.8546185217660688E-01
H    1.2978983471409997E-01    1.9852467851859124E-01    1.2223607334304996E-01
H    1.2364103031024459E-01    1.5316254293042131E-01    6.6793022275221922E-02
H    1.3133458619437088E-01    5.7223809703357859E-02    9.8993182927843620E-02
H    1.2480476671166041E-01    4.9087613957454528E-02    1.6825298318616544E-01
Pb   -5.4679795587013486E-03    2.3189927245234968E-01    2.6780979240321168E-03
I    1.2888534078380831E-01    2.4838997418934339E-01   -2.0196291798538754E-02
I    1.8557633565304217E-02    9.8133337108215035E-02    3.0702545316169498E-02
I    5.9387218469638767E-03    2.5662085334612128E-01    1.2694739444976311E-01
C    3.9295699229693504E-01    9.4279925662598171E-02    1.2220975300188609E-01
N    3.5455755540856448E-01    1.2433812166593974E-01    1.3947245940091132E-01
N    4.3955016105070605E-01    1.1376706247559550E-01    1.1417966719000296E-01
H    3.8731891239550542E-01    5.2341000446833763E-02    1.1446882805441025E-01
H    3.2071999188111638E-01    1.0652517021679961E-01    1.5142227081487153E-01
H    3.6420649563910390E-01    1.6210850816683037E-01    1.5515835641537729E-01
H    4.4906539394971495E-01    1.5465583623023607E-01    1.1573864067579825E-01
H    4.7141081593217343E-01    8.9733869131454091E-02    1.0877147889577317E-01
Pb    2.4750951546392458E-01    2.4402827602361760E-01    2.2728801772091186E-03
I    3.7091969445270206E-01    2.4979488508707387E-01    3.4501789033865228E-02
I    2.3108126706323198E-01    1.0973033634748719E-01   -1.8755686329691633E-05
I    2.4278665972436608E-01    2.7978700670800427E-01    1.2457916547342061E-01
C    6.3337503872870426E-01    1.3257308599426038E-01    1.4860193520843371E-01
N    6.2332679709104100E-01    8.4500327307405629E-02    1.2556443142549509E-01
N    6.3106183592465070E-01    1.7748857598231102E-01    1.2332460140266031E-01
H    6.4820177156751091E-01    1.3409044879513218E-01    1.8893708619461372E-01
H    6.2017558996605626E-01    4.9976448110254632E-02    1.4909299467162526E-01
H    6.0791411902633130E-01    8.4377669503800420E-02    8.8601002781567476E-02
H    6.1592850804035426E-01    1.8229778176658334E-01    8.6653047828054358E-02
H    6.3303167445350239E-01    2.1192871349785100E-01    1.4413414818459949E-01
Pb    4.9332630366556474E-01    2.3164067406212055E-01    9.7196873663895778E-03
I    6.2643740447135410E-01    2.5912659090785717E-01    1.4843334580205056E-03
I    5.3071149716816368E-01    1.1197833907324571E-01    1.1958032215985478E-02
I    5.0624418630899815E-01    2.3787810440167281E-01    1.3238754590507040E-01
C    8.8454723849183736E-01    1.1748025275768371E-01    1.5416578272525372E-01
N    8.3614643104214115E-01    1.0189243722843772E-01    1.6392899603427905E-01
N    9.0998253998033762E-01    1.0980048253686676E-01    1.0989031256327650E-01
H    9.0617882400405125E-01    1.3885105800513137E-01    1.8511561882861233E-01
H    8.1628696781712051E-01    1.1664539135655498E-01    1.9449610432906331E-01
H    8.1042820209740363E-01    8.8057028220764888E-02    1.3581458510139779E-01
H    8.9418490112134219E-01    9.2281477782127475E-02    7.7998378073228847E-02
H    9.4895873897892713E-01    1.1945189210649311E-01    1.0841665090650138E-01
Pb    7.5208604344220209E-01    2.5144656226064094E-01    6.8588199767453161E-03
I    8.7895583956809287E-01    2.1547953462503480E-01    9.6236879645011444E-03
I    7.3659704343231291E-01    1.2195400320982294E-01    4.1233141127781502E-02
I    7.5448406392170853E-01    2.5935126070979364E-01    1.2889069349717527E-01
C    1.0404344616200366E-01    3.5525833672033180E-01    1.3143899367422973E-01
N    1.3764668720713741E-01    3.6351205527427577E-01    1.6877005065793804E-01
N    1.1861422193882661E-01    3.4995426861519990E-01    8.0016161937883676E-02
H    6.4255209222154691E-02    3.5510368330856668E-01    1.4486909290249514E-01
H    1.2656420793655301E-01    3.6537703798591359E-01    2.0644211205887747E-01
H    1.7624757069066102E-01    3.6375151509634451E-01    1.6119584556746835E-01
H    1.5745352662358778E-01    3.5259067327058713E-01    6.7826184095020517E-02
H    9.0515214985662867E-02    3.5184636513566009E-01    5.2022840400222675E-02
Pb   -7.5624710888270975E-04    4.8517585068647745E-01   -3.0629246811495012E-03
I    1.2855759527769056E-01    4.8352448842503248E-01    1.3891525801684471E-02
I   -1.7444664922824392E-02    3.5463261969495996E-01   -6.7383902214729263E-03
I    1.2401701835405366E-02    4.6079103988486686E-01    1.1850356100946094E-01
C    3.8746253820590071E-01    3.6236709419252644E-01    1.3241790024888500E-01
N    3.7098174793690641E-01    3.9746127219631117E-01    9.7713367881279378E-02
N    3.5654686437860189E-01    3.4321183312945480E-01    1.6946205141576182E-01
H    4.2704468780169447E-01    3.4626980919989003E-01    1.3422455534386896E-01
H    3.9411923705942753E-01    4.0899662950069637E-01    6.7497999022435889E-02
H    3.3194317293774822E-01    4.0525838568989653E-01    9.2133093929059481E-02
H    3.2057624324634709E-01    3.6070061906454476E-01    1.7454113738912552E-01
H    3.6729708509393344E-01    3.1510453049789788E-01    1.9916170751056278E-01
Pb    2.4780614734265349E-01    4.8698903830150742E-01    1.4488051875941207E-02
I    3.8051427167567126E-01    5.0287188781079006E-01    1.0713573949356519E-02
I    2.5969159590392549E-01    3.6440735513789613E-01   -2.0435404145086513E-02
I    2.3995992169908192E-01    4.4961139774478598E-01    1.3180827657195715E-01
C    6.5771102037772300E-01    3.5726126967496857E-01    1.3360685162203878E-01
N    6.1478099514231022E-01    3.4680405788919721E-01    1.0726106785919051E-01
N    6.5468965632964338E-01    3.7676754187133615E-01    1.8215022457305427E-01
H    6.9443137044813030E-01    3.4784935337305389E-01    1.1395083165664686E-01
H    6.1769489835681402E-01    3.3232422239360659E-01    6.8688280251351735E-02
H    5.7744817290523165E-01    3.5056638514097327E-01    1.1908394684372976E-01
H    6.1957062138291830E-01    3.8902364840458925E-01    2.0014364914255545E-01
H    6.8948181600182568E-01    3.8206747092314269E-01    2.0454350108358252E-01
Pb    5.0545364758958222E-01    4.8783297545551740E-01    6.1916688849183608E-03
I    6.2857553212360617E-01    4.8032482796373049E-01   -1.7805643078705951E-02
I    4.8463933007770371E-01    3.5671470388879484E-01   -3.7385742758946759E-04
I    5.3798816720509790E-01    4.7330699502284607E-01    1.1604701192774361E-01
C    8.9958705292525087E-01    3.5128606558050468E-01    1.1337783255966433E-01
N    8.8298330419805893E-01    3.9553187703510417E-01    9.0330900543212453E-02
N    8.8941329842115668E-01    3.3925813830807422E-01    1.6346286414736985E-01
H    9.2902563455100995E-01    3.2666506472486856E-01    9.3492689582169400E-02
H    8.9253907575366553E-01    3.9994384483619588E-01    5.0735788662296007E-02
H    8.5673806644431161E-01    4.2233677156628924E-01    1.0600080787635352E-01
H    8.6856606099030842E-01    3.6527328135772541E-01    1.8905342595492500E-01
H    9.0527298711733017E-01    3.0392289087682567E-01    1.8044018702837394E-01
Pb    7.4364735782081492E-01    4.8238859787098048E-01   -5.1216946411792082E-03
I    8.8261955660183267E-01    5.0903042414657029E-01    6.0892145217310420E-03
I    7.8234625312002259E-01    3.6518964971471507E-01   -3.0912408589770568E-02
I    7.5091084217772142E-01    4.6361341298251801E-01    1.1653556162063169E-01
C    1.1889741762849328E-01    5.9465881706395829E-01    1.2034094115138039E-01
N    1.5498589018735956E-01    5.6716796804278369E-01    1.4566744722305200E-01
N    1.1000090820265823E-01    6.4604409083172121E-01    1.2784168045902491E-01
H    9.6990570386901551E-02    5.7668721647831955E-01    8.8191852443773200E-02
H    1.5959907949781615E-01    5.2846261142921347E-01    1.3853487477300871E-01
H    1.7500727205077493E-01    5.8328795131051969E-01    1.7530073416656569E-01
H    1.2562671907615697E-01    6.6738127048777141E-01    1.5765961553724656E-01
H    7.5524313368973167E-02    6.6381428708193635E-01    1.1286980678473202E-01
Pb    5.9425725325383174E-03    7.3331940879916457E-01   -6.9169712465242264E-03
I    1.2582688510055606E-01    7.2103287783345293E-01   -3.2930617589879467E-02
I    9.9676496459004185E-03    6.0953030744543069E-01    1.1166995592213408E-02
I   -1.7532795592777599E-03    7.5091161276127683E-01    1.2208051863173611E-01
C    3.6843598573033487E-01    6.1652910385701742E-01    1.3454134902951637E-01
N    4.0465823201492579E-01    6.1354434461243323E-01    9.6732569788579845E-02
N    3.1767960412679763E-01    6.1815565985015741E-01    1.3132032513791864E-01
H    3.8287008705855557E-01    6.1684735839555660E-01    1.7613515774535932E-01
H    4.4284868539237132E-01    6.2257640513801937E-01    1.1067600699522434E-01
H    3.9669045699538269E-01    6.2162427784078178E-01    5.7210154763482894E-02
H    2.9794455677608489E-01    6.2711461558692849E-01    9.7923260444125804E-02
H    2.9690708337101812E-01    6.1523510951568428E-01    1.6607677577745061E-01
Pb    2.5899155721927497E-01    7.3524881467108427E-01   -1.8714083055355766E-03
I    3.7638781975391367E-01    7.1172852093423289E-01    2.5634857153962612E-03
I    2.3403123852461233E-01    6.1453679889704316E-01    2.2796435857840042E-03
I    2.2612388184653448E-01    7.4008068639857072E-01    1.2701827872492868E-01
C    6.2674547125223823E-01    6.3853054017006561E-01    1.3434292940152553E-01
N    6.3091088866019962E-01    5.8574661561773200E-01    1.3987554867904819E-01
N    5.9570685105799626E-01    6.6087381936363176E-01    1.0060636365821971E-01
H    6.5236900733612913E-01    6.6447720037926405E-01    1.5735725318514185E-01
H    6.5889637732475625E-01    5.7775523380759253E-01    1.6782045848504587E-01
H    6.0481250379955798E-01    5.5838220741829980E-01    1.2855179574944700E-01
H    5.6785263172629741E-01    6.3972156983351347E-01    7.9329193232617695E-02
H    5.9497041799769890E-01    7.0164789409795869E-01    9.5497197369716444E-02
Pb    5.0343685797601478E-01    7.3466179844049928E-01    3.4684332374218126E-03
I    6.1911277017727573E-01    7.6486773374765771E-01    2.0369628111636495E-03
I    5.0557064279485542E-01    6.0902849086020783E-01   -1.2360728811708240E-02
I    4.7891096984200882E-01    7.4556162816255100E-01    1.2708613217296794E-01
C    8.7790018415936710E-01    6.0639280233070936E-01    1.0736208868636854E-01
N    8.6553438417898909E-01    6.4926058375254603E-01    1.3494331595713027E-01
N    8.7174138845212945E-01    5.5742929050771328E-01    1.2387400851563711E-01
H    8.8713346138097193E-01    6.1246891468651521E-01    6.5669894630278461E-02
H    8.7388636635889116E-01    6.8392449922617959E-01    1.1471478951425158E-01
H    8.5686575441054957E-01    6.5225194411865572E-01    1.7478214012544421E-01
H    8.6373145689034758E-01    5.4749533599615330E-01    1.6262718774187554E-01
H    8.7562807335574222E-01    5.2871579795935131E-01    9.4962294834394431E-02
Pb    7.5436214258925949E-01    7.2768482728113160E-01   -4.5731342660493393E-04
I    8.7683398971787840E-01    7.2172470571029057E-01   -2.8023080480297346E-03
I    7.2753958690301967E-01    6.0642792725009631E-01    2.1145637326324140E-02
I    7.3256599265798161E-01    7.7179667343913616E-01    1.1920884916473241E-01
C    1.3056603589559382E-01    8.6852615075155537E-01    1.0151184529984776E-01
N    1.2999482942622986E-01    8.3791199609334532E-01    5.9050395221036764E-02
N    1.1729868237011229E-01    8.5883666303457717E-01    1.5267715196662135E-01
H    1.5090858281464140E-01    9.0703564922990210E-01    9.4365433164579390E-02
H    1.4016039668764563E-01    8.5903030427386540E-01    2.4564061446549223E-02
H    1.2003463165745970E-01    7.9785569623286068E-01    6.1089370450437511E-02
H    9.5184103385964017E-02    8.2571383963030709E-01    1.6184924496165759E-01
H    1.3006447119860320E-01    8.8844943584403990E-01    1.7902107087886590E-01
Pb   -1.1353776890995268E-02    9.8154515892149630E-01   -7.1358996666676952E-03
I    1.2810901559806603E-01    9.7250427184047139E-01   -2.4152351228503191E-02
I   -2.0965703270977284E-02    8.5168075381418873E-01   -3.4667781289977349E-02
I    5.2062689045838449E-04    9.4199937080546403E-01    1.1267641048153494E-01
C    3.7113918589083655E-01    8.7722844685836410E-01    1.3399219388690886E-01
N    3.5684511735639984E-01    8.4362276827730376E-01    9.6930894244196097E-02
N    4.0059942974450025E-01    8.5990171451857988E-01    1.7387651724303393E-01
H    3.6421213538405617E-01    9.1992638540919913E-01    1.3071906964143265E-01
H    3.3785896255080822E-01    8.5821112175338665E-01    6.4808172687733756E-02
H    3.7041014623945506E-01    8.0388598203117256E-01    9.6539692850492270E-02
H    3.9680517199157506E-01    8.1900220538254465E-01    1.7858766469289827E-01
H    4.0361832693217775E-01    8.8579879722725530E-01    2.0459749765854451E-01
Pb    2.4010396251032504E-01    9.8838959778235902E-01   -8.3449511501559152E-03
I    3.7220552333951284E-01    1.0105162153667433E+00    4.7399289359713248E-03
I    2.6041500140055718E-01    8.5728802402780713E-01   -2.4071758339377008E-02
I    2.3513214932600565E-01    9.6183812605024199E-01    1.2569174049131770E-01
C    5.9608768172913817E-01    8.7953682457196214E-01    1.4190892223301513E-01
N    6.4705617348518485E-01    8.7386486507257366E-01    1.4807699739671390E-01
N    5.6833526281226920E-01    8.4926760089518982E-01    1.1118720901784433E-01
H    5.7429648416490042E-01    9.1271480700122387E-01    1.5934997529278597E-01
H    6.6721692834559276E-01    9.0098947600696710E-01    1.7343782910917477E-01
H    6.6549830157872836E-01    8.3821077254104415E-01    1.4176544717689940E-01
H    5.8693430542437353E-01    8.1929274826905507E-01    8.9993554686979338E-02
H    5.3146433311324026E-01    8.5903030352098764E-01    1.0110128685242747E-01
Pb    4.9038747801378191E-01    9.8277442693912709E-01   -2.9742305693062983E-03
I    6.1628471310297583E-01    9.6878989225650902E-01   -4.2507739612763886E-03
I    4.7237039452400470E-01    8.5925386943102666E-01    7.2217450822625838E-03
I    4.8143405751250568E-01    9.7803455327016342E-01    1.2471158977427932E-01
C    8.5228724722576565E-01    8.6806474653208887E-01    1.1794508370745369E-01
N    8.8252072264238879E-01    8.4803302082205112E-01    8.1605079621953000E-02
N    8.6803093396339326E-01    8.7578661659714929E-01    1.6597429322737539E-01
H    8.1308205933185629E-01    8.8186123918979953E-01    1.0439528705971901E-01
H    8.7064850534143456E-01    8.4996677283110511E-01    4.2727748027200869E-02
H    9.1920858650139636E-01    8.3934700149158470E-01    8.5934650537255575E-02
H    9.0299163781971281E-01    8.6680460338287957E-01    1.8106471934557145E-01
H    8.3739154431535034E-01    8.8445377412419046E-01    1.9334482428488087E-01
Pb    7.3416930067825992E-01    9.9323012813520817E-01   -2.3690389528704539E-03
I    8.7338456481384730E-01    1.0147415725737279E+00   -1.0922759964919341E-03
I    7.7247033830151579E-01    8.6519447931165783E-01   -2.2764852712368406E-02
I    7.5118909974154646E-01    9.9036752333896139E-01    1.2506094548948504E-01
C    1.2435591886543404E-01    1.3273565945336468E-01    3.6192074766049637E-01
N    1.0788139148619719E-01    9.4607737150593951E-02    3.2867481484684286E-01
N    1.0550777362192894E-01    1.3909417766472520E-01    4.0968526323084037E-01
H    1.5818221460002863E-01    1.5763914072010354E-01    3.4779155246779797E-01
H    1.3283459911151455E-01    8.7392386088126453E-02    2.9759418548031608E-01
H    8.0977832459625837E-02    6.6782863395607572E-02    3.3570149726555265E-01
H    7.5659335799402205E-02    1.1509756932029176E-01    4.2453126699485355E-01
H    1.1390234265590911E-01    1.7174090630979688E-01    4.3128692814414749E-01
Pb    7.7562568268436363E-04    2.3749300681558996E-01    2.5498976587341821E-01
I    1.2515981240221585E-01    2.4686674987616314E-01    2.4876272923800441E-01
I    1.1923987428884225E-02    1.1149073679235742E-01    2.2489893160309923E-01
I    7.3527350734930910E-03    2.6135272397580323E-01    3.7731390425394795E-01
C    3.9998605405085008E-01    1.2016417682087126E-01    3.6126392206280550E-01
N    3.7551814369953312E-01    1.0692885978949718E-01    3.1785658007864442E-01
N    3.7963511211454520E-01    1.2521706981690114E-01    4.0865763639841352E-01
H    4.4038282759971048E-01    1.2753173626022851E-01    3.5167051706336466E-01
H    3.9845055016925351E-01    1.0268550540439840E-01    2.8504575276523225E-01
H    3.3810119647283582E-01    9.4048966964612069E-02    3.1649685404124250E-01
H    3.3996027763330600E-01    1.2039461283937275E-01    4.1994307830241262E-01
H    4.0352859285551235E-01    1.3829392155311312E-01    4.3834277091901624E-01
Pb    2.5854387131154949E-01    2.4096824606159645E-01    2.4555389369706315E-01
I    3.8572929510239645E-01    2.3435055410281164E-01    2.5440290949057504E-01
I    2.4521647582413650E-01    1.2093557155742611E-01    2.2375581982286424E-01
I    2.4795757568811069E-01    2.1575397350370518E-01    3.7920850235563408E-01
C    6.0531616219332973E-01    1.0841930642111267E-01    3.9599889041933373E-01
N    6.3883010102515447E-01    7.9998687949180497E-02    3.6607369458546885E-01
N    6.1794589461656502E-01    1.2548147128222031E-01    4.4409384033207300E-01
H    5.6564829696665486E-01    1.1312283407943445E-01    3.7989671833233019E-01
H    6.2629816977176822E-01    7.1915683597373534E-02    3.2762494116086954E-01
H    6.7566233649269436E-01    6.3962473790944885E-02    3.7438607402801882E-01
H    6.5595532963643077E-01    1.2298979164387193E-01    4.5730129462928448E-01
H    5.8822876438942229E-01    1.3181743465538232E-01    4.6952247434548733E-01
Pb    5.0819980390150477E-01    2.3596566734723068E-01    2.6300900179639036E-01
I    6.2927798524819967E-01    2.3075794063747401E-01    2.6913371328754954E-01
I    5.0709720555292570E-01    1.0908985436636146E-01    2.5525350231752203E-01
I    4.9777687832481865E-01    2.1734392453002802E-01    3.8619979824407630E-01
C    8.9426794881838001E-01    1.0427823189428219E-01    3.7662922964359030E-01
N    8.4434936398455573E-01    9.9941456603566625E-02    3.9030413529857882E-01
N    9.2601955088413801E-01    1.3388110927067329E-01    4.0252353753051956E-01
H    9.0881766550974563E-01    8.1407673517534376E-02    3.4380314523933431E-01
H    8.1910867275744892E-01    7.7181948843929149E-02    3.6911782604733523E-01
H    8.2928730805417106E-01    1.2129003146361778E-01    4.2000053932695436E-01
H    9.1709016164035118E-01    1.5840375991154310E-01    4.3343659491412456E-01
H    9.6423464814221138E-01    1.3706169440928698E-01    3.9056411508028938E-01
Pb    7.6287451081433288E-01    2.5290132753904915E-01    2.5005822182501247E-01
I    8.7902398484778099E-01    2.1652961185877456E-01    2.7180268502836674E-01
I    7.4151379092011060E-01    1.2210215741845962E-01    2.6084215032637625E-01
I    7.5609612309712271E-01    2.3690180291964133E-01    3.8599686847044995E-01
C    1.2135939033600113E-01    3.5416883024213508E-01    3.4921236287319263E-01
N    1.3689795420531695E-01    3.1332874575200304E-01    3.7816826420736621E-01
N    1.1838794721348440E-01    4.0280277000069059E-01    3.6655530474361148E-01
H    1.0690813634770713E-01    3.4743168629742849E-01    3.0962387778333139E-01
H    1.4136009054188242E-01    2.7714286399617166E-01    3.5790373671809039E-01
H    1.5190361625369719E-01    3.1570223798450053E-01    4.1506540967541422E-01
H    1.1940882046807111E-01    4.1565718234358467E-01    4.0595541404742241E-01
H    1.0922468990555551E-01    4.3258530913822563E-01    3.4196623052162656E-01
Pb   -8.4820177383092832E-03    4.9057077776562874E-01    2.3526561198819829E-01
I    1.1479843683073797E-01    4.7995783636636935E-01    2.5209557186000869E-01
I   -4.0471659255001428E-03    3.6420753991213495E-01    2.4915222188449693E-01
I   -2.7776174704387574E-03    4.9565149698351513E-01    3.7242381201276953E-01
C    3.9024333843350334E-01    3.6667099097776534E-01    3.6874675607670038E-01
N    3.6917657966848333E-01    3.2642682322514505E-01    3.9078149381761246E-01
N    3.6900009689226687E-01    4.1433783982549538E-01    3.6880584530980398E-01
H    4.2783159456034103E-01    3.6236772735623890E-01    3.4861274122481239E-01
H    3.8724871793578197E-01    2.9091332845754980E-01    3.9565350200457994E-01
H    3.3165035913856777E-01    3.3260161801112753E-01    4.0566839640894997E-01
H    3.3553238392378459E-01    4.2118208816824315E-01    3.8900376902301942E-01
H    3.8028592283160528E-01    4.4818669038729753E-01    3.4980911194638781E-01
Pb    2.5370583332160557E-01    4.9070296128553254E-01    2.5527521126876668E-01
I    3.7327925276902213E-01    4.9698383468424578E-01    2.3303011633021628E-01
I    2.5092874752175287E-01    3.6429984531974269E-01    2.6232283989499172E-01
I    2.5049183796677937E-01    4.9859589096540508E-01    3.7921358356167451E-01
C    6.1873069493880295E-01    3.5819562503565933E-01    3.6305284161161805E-01
N    6.6194208887485395E-01    3.8627360605580763E-01    3.6745344486893761E-01
N    6.1344634349906846E-01    3.0859919429293914E-01    3.7725226177026849E-01
H    5.8434567950578298E-01    3.7637204896699211E-01    3.4662903456222405E-01
H    6.5906841520550730E-01    4.2749557771186980E-01    3.6231660516715614E-01
H    7.0064722822948999E-01    3.7055265876401272E-01    3.7009551518883604E-01
H    6.3986952692508048E-01    2.8710165454341585E-01    3.9875385241311534E-01
H    5.7645206836525664E-01    2.9159033039323545E-01    3.7006520544072202E-01
Pb    4.9589568854810062E-01    4.8577709600079322E-01    2.3697294034201535E-01
I    6.1822496462365661E-01    4.8779136772664694E-01    2.6492716272523431E-01
I    4.9839081643599209E-01    3.6475164134034049E-01    2.5078275655471777E-01
I    4.8749100824900576E-01    4.9805395142927056E-01    3.6330917116090244E-01
C    9.0440382089880667E-01    3.5976475883186743E-01    3.7876287446996182E-01
N    8.8240320272309491E-01    4.0762833686718780E-01    3.7734835792963889E-01
N    8.8392333970221715E-01    3.1517900237040053E-01    3.9360498836449381E-01
H    9.4550112196156855E-01    3.5701694834418662E-01    3.6759357178083640E-01
H    9.0596230394072408E-01    4.3881200586175084E-01    3.6517664898092056E-01
H    8.4417711287141872E-01    4.1491785455479457E-01    3.8266943270390819E-01
H    8.4492532006890375E-01    3.1016412624473855E-01    4.0647110136327330E-01
H    9.0631298189216769E-01    2.8147885422135172E-01    3.9527418744931386E-01
Pb    7.4493625522031925E-01    4.9533779084358576E-01    2.5686142992368755E-01
I    8.7496693146856297E-01    5.1039727416328107E-01    2.4855408226084236E-01
I    7.8640485339839294E-01    3.7704237168601629E-01    2.9070676160291092E-01
I    7.3162440732051470E-01    5.2189444529325169E-01    3.7915369039771701E-01
C    1.0896322313098687E-01    6.0055329226158483E-01    3.8309686901248308E-01
N    1.3283125203544582E-01    6.2478519487226702E-01    4.2395997705321714E-01
N    1.1849661823884856E-01    6.1155134709961612E-01    3.3289596548423345E-01
H    8.0340608398038763E-02    5.6842770773720919E-01    3.9623631134145204E-01
H    1.1776864581213632E-01    6.1641717822360498E-01    4.6188457783090320E-01
H    1.6029037732614373E-01    6.5494110014599960E-01    4.1676911131006600E-01
H    1.4382918385218116E-01    6.4291021596545916E-01    3.2435700121325428E-01
H    9.5543191889633450E-02    5.9368241973131519E-01    3.0220695012634646E-01
Pb    1.5126056631942386E-02    7.2982977048730624E-01    2.5328130344815991E-01
I    1.2789890810101273E-01    7.4306832842670112E-01    2.4146538176199514E-01
I    1.6085798567368165E-02    6.1350416091291593E-01    2.2781522931645110E-01
I    4.5064320814068972E-03    7.3335430042144156E-01    3.7942232209635268E-01
C    3.8414348943070570E-01    6.2551516853628075E-01    3.7639315711557841E-01
N    3.5213992253159143E-01    6.0948577949828142E-01    4.1460539584440120E-01
N    3.9177956645012890E-01    6.0330360707664865E-01    3.2964929835979540E-01
H    4.0510196582146896E-01    6.6275248119917018E-01    3.8862347562072147E-01
H    3.5352911181675195E-01    6.2928398299376032E-01    4.5093475430465119E-01