 # Version information for this restart file 
 # current date 2021-09-10 20:01:45.205
 # current working dir /projectsp/f_rcr78_1/MW/Hybrid_Perovskite/FAPbI3/300K/MLWFC3
 # Program compiled at                              Fri Sep 13 14:50:45 EDT 2019
 # Program compiled on                             slepner083.amarel.rutgers.edu
 # Program compiled for                                                    local
 # Source code revision number                                       git:e35496b
 &GLOBAL
   PRINT_LEVEL  LOW
   PROJECT_NAME FPB_MD_300
   RUN_TYPE  MD
   WALLTIME 47:58:00
 &END GLOBAL
 &MOTION
   &MD
     ENSEMBLE  NVT
     STEPS  5000
     TIMESTEP     9.9999999999999989E-01
     STEP_START_VAL  9336
     TIME_START_VAL     9.3359999999989886E+03
     ECONS_START_VAL    -4.2642859995950075E+03
     TEMPERATURE     3.0000000000000000E+02
     COMVEL_TOL     1.0000000000000000E-08
     &THERMOSTAT
       TYPE  CSVR
       &CSVR
         TIMECON     9.9999999999999986E+01
         &THERMOSTAT_ENERGY
              -4.6633268889572299E-01
         &END THERMOSTAT_ENERGY
         &RNG_INIT
Wiener process for Thermostat # 1        1 F T F   4.1739961135384113E-01        2060444469.0        4082789729.0        3870723062.0        1861086482.0        1459281465.0        2496193321.0             12345.0             12345.0             12345.0             12345.0             12345.0             12345.0             12345.0             12345.0             12345.0             12345.0             12345.0             12345.0
         &END RNG_INIT
       &END CSVR
     &END THERMOSTAT
     &AVERAGES  T
       &RESTART_AVERAGES
         ITIMES_START  1
         AVECPU     4.2789044218954467E+02
         AVEHUGONIOT     0.0000000000000000E+00
         AVETEMP_BARO     0.0000000000000000E+00
         AVEPOT    -4.2648771570659037E+03
         AVEKIN     1.0837682373437807E+00
         AVETEMP     2.9745896006573565E+02
         AVEKIN_QM     0.0000000000000000E+00
         AVETEMP_QM     0.0000000000000000E+00
         AVEVOL     1.0988776726607233E+05
         AVECELL_A     4.8433380039726032E+01
         AVECELL_B     4.7361225164589960E+01
         AVECELL_C     4.7905088028159518E+01
         AVEALPHA     9.0000000000000000E+01
         AVEBETA     9.0000000000000000E+01
         AVEGAMMA     9.0000000000000000E+01
         AVE_ECONS     5.8010845882625421E+00
         AVE_PRESS     0.0000000000000000E+00
         AVE_PXX     0.0000000000000000E+00
       &END RESTART_AVERAGES
     &END AVERAGES
   &END MD
   &PRINT
     &TRAJECTORY  SILENT
       &EACH
         MD  1
       &END EACH
     &END TRAJECTORY
     &VELOCITIES  SILENT
       &EACH
         MD  1
       &END EACH
     &END VELOCITIES
     &FORCES  SILENT
       &EACH
         MD  1
       &END EACH
     &END FORCES
     &STRESS  SILENT
       &EACH
         MD  1
       &END EACH
     &END STRESS
     &RESTART  SILENT
       BACKUP_COPIES  3
       &EACH
         MD  1
       &END EACH
     &END RESTART
     &RESTART_HISTORY  SILENT
       &EACH
         MD  5
       &END EACH
     &END RESTART_HISTORY
   &END PRINT
 &END MOTION
 &FORCE_EVAL
   METHOD  QS
   &DFT
     BASIS_SET_FILE_NAME BASIS_MOLOPT
     POTENTIAL_FILE_NAME GTH_POTENTIALS
     MULTIPLICITY  1
     CHARGE  0
     &SCF
       MAX_SCF  30
       EPS_SCF     1.0000000000000001E-05
       CHOLESKY  INVERSE
       SCF_GUESS  ATOMIC
       ADDED_MOS  20
       &DIAGONALIZATION  T
         ALGORITHM  STANDARD
       &END DIAGONALIZATION
       &OUTER_SCF  T
         EPS_SCF     1.0000000000000001E-05
         MAX_SCF  10
       &END OUTER_SCF
       &SMEAR  T
         METHOD  FERMI_DIRAC
         ELECTRONIC_TEMPERATURE     5.0000000000000007E+01
       &END SMEAR
       &MIXING  T
         METHOD  BROYDEN_MIXING
         ALPHA     4.0000000000000002E-01
         BETA     5.9999999999999998E-01
         NBUFFER  8
       &END MIXING
       &PRINT
         &RESTART  OFF
         &END RESTART
       &END PRINT
     &END SCF
     &QS
       EPS_DEFAULT     1.0000000000000000E-10
       EXTRAPOLATION  ASPC
       METHOD  GPW
     &END QS
     &MGRID
       NGRIDS  4
       CUTOFF     4.0000000000000000E+02
       REL_CUTOFF     8.0000000000000000E+01
     &END MGRID
     &XC
       DENSITY_CUTOFF     1.0000000000000000E-10
       GRADIENT_CUTOFF     1.0000000000000000E-10
       TAU_CUTOFF     1.0000000000000000E-10
       &XC_FUNCTIONAL  NO_SHORTCUT
         &PBE  T
         &END PBE
       &END XC_FUNCTIONAL
     &END XC
     &POISSON
       PERIODIC  XYZ
     &END POISSON
     &LOCALIZE  T
       EPS_LOCALIZATION     1.0000000000000001E-05
       METHOD  JACOBI
       &PRINT
         &WANNIER_CENTERS  SILENT
           IONS+CENTERS  T
         &END WANNIER_CENTERS
         &WANNIER_SPREADS  SILENT
         &END WANNIER_SPREADS
       &END PRINT
     &END LOCALIZE
     &REAL_TIME_PROPAGATION
       INITIAL_WFN  SCF_WFN
     &END REAL_TIME_PROPAGATION
     &PRINT
       &MO_CUBES  SILENT
         WRITE_CUBE  F
         NLUMO  4
         NHOMO  4
         &EACH
           MD  10
         &END EACH
       &END MO_CUBES
       &E_DENSITY_CUBE  OFF
       &END E_DENSITY_CUBE
     &END PRINT
   &END DFT
   &SUBSYS
     &CELL
       A     2.5629840852000001E+01    0.0000000000000000E+00    0.0000000000000000E+00
       B     0.0000000000000000E+00    2.5062480927999999E+01    0.0000000000000000E+00
       C     0.0000000000000000E+00    0.0000000000000000E+00    2.5350280760000000E+01
       MULTIPLE_UNIT_CELL  1 1 1
     &END CELL
     &COORD
C    1.2889422068315765E-01    1.2549671915985106E-01    1.4429556473849844E-01
N    1.2599721168967595E-01    1.6108828066699171E-01    1.0701351693812171E-01
N    1.2552769358845392E-01    7.2930762002691787E-02    1.3549280935689165E-01
H    1.3536740032625302E-01    1.3875697688335914E-01    1.8617940808644495E-01
H    1.3002069923425175E-01    1.9903700356644771E-01    1.2169525696407049E-01
H    1.2468745042360939E-01    1.5305620052516153E-01    6.7702724394106004E-02
H    1.3078239565411015E-01    5.6445519992622741E-02    9.9559533075068915E-02
H    1.2458928344099965E-01    4.9181520895690917E-02    1.6775449966788897E-01
Pb   -5.5342189683525072E-03    2.3198230244153389E-01    2.6898859991209239E-03
I    1.2884312234146630E-01    2.4838731530047839E-01   -2.0162203073925418E-02
I    1.8582997824463723E-02    9.8159908513119259E-02    3.0652114516241238E-02
I    5.9550969893932748E-03    2.5671403348536181E-01    1.2691438123680571E-01
C    3.9294194335349247E-01    9.4044919066137600E-02    1.2186487630169178E-01
N    3.5469418473319392E-01    1.2424451996001383E-01    1.3939634795060912E-01
N    4.3954280235480914E-01    1.1386604125617603E-01    1.1401221615034135E-01
H    3.8701203349396224E-01    5.1617277010906640E-02    1.1463370293551492E-01
H    3.2035523050922338E-01    1.0666391417355829E-01    1.5124545575256668E-01
H    3.6418180869415728E-01    1.6219161386124592E-01    1.5491605061406372E-01
H    4.4878952542494760E-01    1.5445544833401631E-01    1.1561798262588903E-01
H    4.7167083226319589E-01    8.9318356061817025E-02    1.0781936171332306E-01
Pb    2.4745301465818936E-01    2.4400172436880366E-01    2.2356014842190440E-03
I    3.7099741227931926E-01    2.4968444569978490E-01    3.4550396009389472E-02
I    2.3119197320253995E-01    1.0976258540712959E-01   -6.5646749620615271E-05
I    2.4274941252064994E-01    2.7976249867508785E-01    1.2452838154509971E-01
C    6.3292432635518459E-01    1.3263204381227972E-01    1.4842872498304513E-01
N    6.2319398001300752E-01    8.4813261976123308E-02    1.2545194035068580E-01
N    6.3139856299463026E-01    1.7760594756279291E-01    1.2324395234177545E-01
H    6.4773119882995978E-01    1.3449093664765424E-01    1.8888150946863846E-01
H    6.2033952176763918E-01    4.9902144722866318E-02    1.4932832859983505E-01
H    6.0796864484284163E-01    8.4589403092830973E-02    8.9554481752990522E-02
H    6.1550982939320598E-01    1.8257359322635333E-01    8.5772286570624495E-02
H    6.3364972540603348E-01    2.1144591978145286E-01    1.4458802552436961E-01
Pb    4.9332829444396631E-01    2.3171264019407056E-01    9.6910322438265965E-03
I    6.2642708338535236E-01    2.5909299499524757E-01    1.6144816910060042E-03
I    5.3079373810909380E-01    1.1198842423850468E-01    1.1956656522070078E-02
I    5.0617910941883626E-01    2.3772018853086771E-01    1.3247978555872192E-01
C    8.8450865937702994E-01    1.1743453827028576E-01    1.5433763049552293E-01
N    8.3625332626877757E-01    1.0174988338825755E-01    1.6389194471118509E-01
N    9.0998117113567401E-01    1.0995747280003224E-01    1.0982445134768949E-01
H    9.0557181346772375E-01    1.3843065879134606E-01    1.8545106937612335E-01
H    8.1603588478343592E-01    1.1588044504513247E-01    1.9446629537811705E-01
H    8.0964111936793293E-01    8.8381583383128764E-02    1.3539492090038985E-01
H    8.9458870928970391E-01    9.1017343170502973E-02    7.7699769182152323E-02
H    9.4886363668764151E-01    1.1972792570294631E-01    1.0861017158293684E-01
Pb    7.5212966023628214E-01    2.5140228654651559E-01    6.9089629716563615E-03
I    8.7901191659383549E-01    2.1551271686920723E-01    9.4944054687261525E-03
I    7.3664718602138801E-01    1.2198443093064402E-01    4.1417255103125952E-02
I    7.5448522491867942E-01    2.5936014920419542E-01    1.2888342423122817E-01
C    1.0400122742109542E-01    3.5504808873573074E-01    1.3139736808850505E-01
N    1.3781302681107685E-01    3.6326131615280161E-01    1.6874881173403011E-01
N    1.1872889932270320E-01    3.5002143566418614E-01    8.0035183185200101E-02
H    6.4188948607187074E-02    3.5438121586848370E-01    1.4538072908982591E-01
H    1.2740075133530077E-01    3.6559912576380355E-01    2.0759446756962535E-01
H    1.7651920533098650E-01    3.6338558954658917E-01    1.6203155706735944E-01
H    1.5687584983020053E-01    3.5335691177519152E-01    6.8314470506018479E-02
H    9.0589053604009123E-02    3.5135104569799058E-01    5.1947415119200063E-02
Pb   -8.6253135509218595E-04    4.8511291275070118E-01   -3.0719192271503942E-03
I    1.2863282601791606E-01    4.8357362291461559E-01    1.3831271912741668E-02
I   -1.7494438006784775E-02    3.5445468948183728E-01   -6.7788421243581880E-03
I    1.2292357564759592E-02    4.6085686113545127E-01    1.1849333735602986E-01
C    3.8745024859494420E-01    3.6207217346082798E-01    1.3221402233684892E-01
N    3.7098506289439015E-01    3.9736007035570337E-01    9.7874025083597771E-02
N    3.5654653365131717E-01    3.4326583999038079E-01    1.6919000673957701E-01
H    4.2617401071618349E-01    3.4654159590659611E-01    1.3440845313265187E-01
H    3.9441852915539249E-01    4.0933325993715713E-01    6.8730227281193546E-02
H    3.3211641618756643E-01    4.0585709129036762E-01    9.3154879787556572E-02
H    3.1994001074045747E-01    3.6079306912984122E-01    1.7409794258781028E-01
H    3.6764735886115629E-01    3.1554677768862860E-01    1.9907533146531883E-01
Pb    2.4773496337570530E-01    4.8696331488252609E-01    1.4493409731084875E-02
I    3.8043003248281942E-01    5.0292399412095556E-01    1.0762851189665022E-02
I    2.5969371970516369E-01    3.6438208711041320E-01   -2.0372614869166764E-02
I    2.4001630041435359E-01    4.4953787839846793E-01    1.3182082538186224E-01
C    6.5774396107451283E-01    3.5713285558241842E-01    1.3361524556210816E-01
N    6.1494728403580767E-01    3.4697181264430588E-01    1.0707119223390787E-01
N    6.5490352785292916E-01    3.7664457381867278E-01    1.8208830939202056E-01
H    6.9413806709510539E-01    3.4735465060158427E-01    1.1297211858878028E-01
H    6.1709926110546742E-01    3.3217234504686111E-01    6.8261627180548304E-02
H    5.7787885094633817E-01    3.4991495185042581E-01    1.1950278288703163E-01
H    6.1938676652800095E-01    3.9052921426682324E-01    2.0087997830274007E-01
H    6.8870324327200938E-01    3.8224934502269764E-01    2.0474637998289491E-01
Pb    5.0545208609245662E-01    4.8786343392553982E-01    6.1572356335481563E-03
I    6.2852706181955731E-01    4.8028680554877612E-01   -1.7892361074104253E-02
I    4.8465446807783052E-01    3.5676126137052466E-01   -2.9791777596672000E-04
I    5.3800293115316056E-01    4.7332862409161724E-01    1.1607522881873020E-01
C    8.9951618536832323E-01    3.5148529699470460E-01    1.1310978720718363E-01
N    8.8290810757788230E-01    3.9537714794079709E-01    9.0546684359755977E-02
N    8.8905807754335964E-01    3.3930241850085530E-01    1.6340539153156508E-01
H    9.2888611744662497E-01    3.2691704612465411E-01    9.3600536438689264E-02
H    8.9215915647813815E-01    4.0061937538540299E-01    5.1040623844049171E-02
H    8.5733631792780274E-01    4.2231421314882533E-01    1.0649834399540070E-01
H    8.6807182404992611E-01    3.6482715447323832E-01    1.8932608831770317E-01
H    9.0393809029377237E-01    3.0304018535868410E-01    1.8075435473513732E-01
Pb    7.4360838139273000E-01    4.8239784599415109E-01   -5.0739014369573909E-03
I    8.8273658662644594E-01    5.0907482806039006E-01    6.0626356910405696E-03
I    7.8230529984309427E-01    3.6511364678148467E-01   -3.0945967244202757E-02
I    7.5081312349410967E-01    4.6372013402061313E-01    1.1646882664013597E-01
C    1.1866339631255664E-01    5.9492729643597719E-01    1.2062911478469332E-01
N    1.5485522251297734E-01    5.6747020876945731E-01    1.4541676747922092E-01
N    1.1011183645152950E-01    6.4588825266799998E-01    1.2794094044195334E-01
H    9.6759963805035765E-02    5.7690461748351551E-01    8.7436509803016427E-02
H    1.5937465809877316E-01    5.2834900848779909E-01    1.3802283040235963E-01
H    1.7479316111352239E-01    5.8380961013056898E-01    1.7592407313216493E-01
H    1.2602864490286969E-01    6.6878667830906591E-01    1.5705149435501406E-01
H    7.6382949434868216E-02    6.6390586023144604E-01    1.1267100672592133E-01
Pb    5.9456377912083264E-03    7.3335159620464341E-01   -6.8305641193233662E-03
I    1.2581652977918423E-01    7.2099799872810755E-01   -3.2939657957290487E-02
I    9.9574634097921392E-03    6.0949426716203214E-01    1.1270460322340406E-02
I   -1.7452271672657022E-03    7.5093311206918822E-01    1.2215102515978854E-01
C    3.6814399588382768E-01    6.1669873258459640E-01    1.3482594990281446E-01
N    4.0476707286274877E-01    6.1346671938301012E-01    9.7080434593585910E-02
N    3.1771181542151322E-01    6.1831688985605293E-01    1.3111554643798545E-01
H    3.8377346807495605E-01    6.1713154210665144E-01    1.7583262385731233E-01
H    4.4302531488433433E-01    6.2338159435910334E-01    1.1163703184141648E-01
H    3.9658154042561672E-01    6.2128148782499493E-01    5.7519032179547354E-02
H    2.9699229445407449E-01    6.2754753566764898E-01    9.6871096147512034E-02
H    2.9671284517541385E-01    6.1511558420491608E-01    1.6609908539456084E-01
Pb    2.5898024928226770E-01    7.3520491697575141E-01   -1.8901987175097255E-03
I    3.7637216705462651E-01    7.1166711203886790E-01    2.4958523982485693E-03
I    2.3397937886986184E-01    6.1450741452875213E-01    2.3319682076098094E-03
I    2.2609298485279808E-01    7.4010919369810124E-01    1.2701684824848444E-01
C    6.2691358550697529E-01    6.3869811526914555E-01    1.3459179750828262E-01
N    6.3088533489302934E-01    5.8595384998602629E-01    1.3962734536228447E-01
N    5.9596675243212827E-01    6.6074066456661373E-01    1.0076474945352575E-01
H    6.5175363173740131E-01    6.6434018333097711E-01    1.5715286116780003E-01
H    6.5911347891405725E-01    5.7683719729532323E-01    1.6724558668042724E-01
H    6.0577926287782469E-01    5.5702299166667313E-01    1.2770058552145006E-01
H    5.6854032784306729E-01    6.3955837978009078E-01    7.9704667383078548E-02
H    5.9523042268743054E-01    7.0151327990834056E-01    9.5274548463869055E-02
Pb    5.0344569572337106E-01    7.3469991251375133E-01    3.4655025732025762E-03
I    6.1898785438580384E-01    7.6490741665123996E-01    2.1074687235458343E-03
I    5.0555293200521711E-01    6.0903917590108159E-01   -1.2277544716656898E-02
I    4.7887598885100707E-01    7.4560500848883282E-01    1.2710387843083415E-01
C    8.7797213583585576E-01    6.0646793033953705E-01    1.0736056813613601E-01
N    8.6538218389443378E-01    6.4897569327959337E-01    1.3484788364894351E-01
N    8.7193404336564417E-01    5.5755381637363377E-01    1.2377647836906898E-01
H    8.8711412368234088E-01    6.1282609573518587E-01    6.5551850771893058E-02
H    8.7445368510361376E-01    6.8359605330880457E-01    1.1419118998802717E-01
H    8.5671584922782096E-01    6.5148205899978373E-01    1.7448844500083147E-01
H    8.6227658527328099E-01    5.4830753205526939E-01    1.6314224317232856E-01
H    8.7575410076376792E-01    5.2865293492562571E-01    9.5472068867794052E-02
Pb    7.5440258052482445E-01    7.2770182946002315E-01   -3.5751277739856142E-04
I    8.7687178984027569E-01    7.2172515005470861E-01   -2.7448693837081105E-03
I    7.2767500013332875E-01    6.0638938065911974E-01    2.1123791169225341E-02
I    7.3261663739451222E-01    7.7172727021323217E-01    1.1919898809387397E-01
C    1.3058592737246952E-01    8.6855319682361865E-01    1.0145773982359782E-01
N    1.2994218133317470E-01    8.3813490694120962E-01    5.8937225690779263E-02
N    1.1671596359005994E-01    8.5861610294725155E-01    1.5237815711821662E-01
H    1.5102692353998134E-01    9.0689359959903848E-01    9.4123500951163605E-02
H    1.4048879707633924E-01    8.5824219790387657E-01    2.4825937433390961E-02
H    1.1882580767158780E-01    7.9776444329102814E-01    6.1691637176310390E-02
H    9.4217104666853263E-02    8.2641932489722680E-01    1.6125525573502658E-01
H    1.2970003174195169E-01    8.8821073708208365E-01    1.7822244370865845E-01
Pb   -1.1347835829336137E-02    9.8148562105860926E-01   -7.1481094491523626E-03
I    1.2817229744753869E-01    9.7245193818970443E-01   -2.4273273860383478E-02
I   -2.1117222533448391E-02    8.5176350414183033E-01   -3.4600057373434114E-02
I    5.0075936037288001E-04    9.4197842273377741E-01    1.1271804062179200E-01
C    3.7103628623973683E-01    8.7737147288599826E-01    1.3393309348675630E-01
N    3.5695381074298355E-01    8.4382601193708806E-01    9.7092552635435508E-02
N    4.0066158921570511E-01    8.5973028556631104E-01    1.7401705838650378E-01
H    3.6423922023915167E-01    9.2076629244685360E-01    1.3195821818826847E-01
H    3.3764524332802787E-01    8.5739121089680426E-01    6.4212315117999949E-02
H    3.7062010495470349E-01    8.0377817696554676E-01    9.4923295224878093E-02
H    3.9764201462379767E-01    8.1805482450561795E-01    1.7821003797097126E-01
H    4.0419354787151962E-01    8.8448931015709920E-01    2.0527940800737002E-01
Pb    2.4008964952976025E-01    9.8835866512367809E-01   -8.3357256203001155E-03
I    3.7222264046956210E-01    1.0104465876654840E+00    4.7061113282461046E-03
I    2.6042221889781536E-01    8.5736355368348904E-01   -2.4117712967823932E-02
I    2.3513337176851132E-01    9.6181183422450434E-01    1.2566523678325622E-01
C    5.9603226423813860E-01    8.7945310342428629E-01    1.4177053783407073E-01
N    6.4717379743547632E-01    8.7401771005415552E-01    1.4827979106271821E-01
N    5.6823505239812555E-01    8.4930331701754591E-01    1.1169924369292407E-01
H    5.7458881945117735E-01    9.1251355768000553E-01    1.5991499135823423E-01
H    6.6790695606219230E-01    9.0062933114976218E-01    1.7321841418655598E-01
H    6.6504092019821204E-01    8.3835891563390497E-01    1.4086295905267485E-01
H    5.8589763328902944E-01    8.1958514828276285E-01    8.9737448183172766E-02
H    5.3177118167412063E-01    8.5925216975963814E-01    1.0133092625565625E-01
Pb    4.9041990564642335E-01    9.8275451059618724E-01   -3.0542352136150534E-03
I    6.1635698317965637E-01    9.6864538512295639E-01   -4.2471797140058425E-03
I    4.7236421931274009E-01    8.5920729607610125E-01    7.2113083999226944E-03
I    4.8150571217869315E-01    9.7797718830148150E-01    1.2472765654751004E-01
C    8.5210507445579620E-01    8.6783952983392099E-01    1.1800518863307238E-01
N    8.8250738010525898E-01    8.4808792083807860E-01    8.1579259267772292E-02
N    8.6792468417117907E-01    8.7558815577020799E-01    1.6608137241294199E-01
H    8.1221475432918178E-01    8.8209261711275844E-01    1.0477547356283570E-01
H    8.6991483202526032E-01    8.5063757691210329E-01    4.2564603257787478E-02
H    9.1961982444092760E-01    8.3965509584825826E-01    8.5880667533461116E-02
H    9.0389310902533049E-01    8.6625031070089764E-01    1.8072099663670982E-01
H    8.3765129924648696E-01    8.8448457122866997E-01    1.9360854561101828E-01
Pb    7.3424308713235975E-01    9.9318063252344857E-01   -2.4440060470117321E-03
I    8.7336461058758807E-01    1.0147790597839483E+00   -1.0228013167758387E-03
I    7.7248403848528735E-01    8.6518267131765081E-01   -2.2822414802847503E-02
I    7.5114153843059384E-01    9.9042749561152243E-01    1.2506785852608238E-01
C    1.2462105037575702E-01    1.3250929450492333E-01    3.6205830679512530E-01
N    1.0803459400564144E-01    9.4694263700224768E-02    3.2890734615523448E-01
N    1.0557092763130742E-01    1.3950438077692576E-01    4.0963134382175054E-01
H    1.5748097227697017E-01    1.5814325333863158E-01    3.4634000677176691E-01
H    1.3301910025640357E-01    8.6629054777378242E-02    2.9697271740322606E-01
H    8.0569051964318322E-02    6.5881219345455599E-02    3.3574771513189827E-01
H    7.5641813300689989E-02    1.1491486928088680E-01    4.2480261628452565E-01
H    1.1360256513595605E-01    1.7246350376550978E-01    4.3103409676049165E-01
Pb    7.7498313021198933E-04    2.3750595691719592E-01    2.5501274546748515E-01
I    1.2504335826762600E-01    2.4681026618503252E-01    2.4887485155830658E-01
I    1.1961960606162931E-02    1.1152139458626470E-01    2.2490749979307487E-01
I    7.2406827985966333E-03    2.6130746873757249E-01    3.7738388147428881E-01
C    3.9996915442680597E-01    1.2001446466707406E-01    3.6164031514987394E-01
N    3.7557844614358932E-01    1.0692011057491620E-01    3.1790297608492563E-01
N    3.7995025744254002E-01    1.2552800400210923E-01    4.0855537917779339E-01
H    4.4013450271303639E-01    1.2838178897235622E-01    3.5178461903224378E-01
H    3.9831334488027098E-01    1.0302372774165233E-01    2.8503527916673221E-01
H    3.3906955167221769E-01    9.3816484666237460E-02    3.1651193084152357E-01
H    3.4028697686505266E-01    1.2006255742648592E-01    4.2067611457982229E-01
H    4.0352035707548906E-01    1.3762139974605872E-01    4.3704912903062793E-01
Pb    2.5854960545661837E-01    2.4097616639832034E-01    2.4557603314163826E-01
I    3.8574561623739145E-01    2.3435965618669771E-01    2.5449681661481932E-01
I    2.4514300863035171E-01    1.2091394076981150E-01    2.2372017347393841E-01
I    2.4789984963615291E-01    2.1584609715858916E-01    3.7916089196171326E-01
C    6.0535640191710849E-01    1.0815146140034955E-01    3.9574672120118387E-01
N    6.3882307971979291E-01    8.0156717679431971E-02    3.6598748370906548E-01
N    6.1781541610904367E-01    1.2551006499877887E-01    4.4412667085076779E-01
H    5.6565403777400713E-01    1.1411934408168836E-01    3.7962321850385117E-01
H    6.2613230059851022E-01    7.1675418331678398E-02    3.2767939605438340E-01
H    6.7549694927655113E-01    6.3607470583156536E-02    3.7470467043383293E-01
H    6.5662514739319566E-01    1.2297096978627656E-01    4.5689571446622951E-01
H    5.8816220404803299E-01    1.3178323655335161E-01    4.6885510367526845E-01
Pb    5.0823127313653338E-01    2.3592967143230653E-01    2.6297307914537510E-01
I    6.2924125848341017E-01    2.3077884901445078E-01    2.6929016280538676E-01
I    5.0708044630980775E-01    1.0908897666046402E-01    2.5534472241370521E-01
I    4.9773830678781417E-01    2.1739655802218805E-01    3.8625239735510786E-01
C    8.9430878098962074E-01    1.0433789637527538E-01    3.7635799166572553E-01
N    8.4440107468983316E-01    1.0005347892793169E-01    3.8983533030841394E-01
N    9.2611823290235351E-01    1.3394989931135137E-01    4.0257263602122784E-01
H    9.0849451328261521E-01    8.1265487159949190E-02    3.4316815153904362E-01
H    8.1949208870307355E-01    7.6697214044814332E-02    3.6921784557572951E-01
H    8.2892664438997321E-01    1.2234372250571768E-01    4.1943806464284628E-01
H    9.1747152916092178E-01    1.5781330263929930E-01    4.3393456076480247E-01
H    9.6415594184916398E-01    1.3791490455882338E-01    3.9049387235606142E-01
Pb    7.6273243313381844E-01    2.5291091587339876E-01    2.5005700434408867E-01
I    8.7898505428397911E-01    2.1651669502220780E-01    2.7177334102734635E-01
I    7.4142605765099656E-01    1.2205857435880298E-01    2.6092574118988471E-01
I    7.5608125083348854E-01    2.3689171121024347E-01    3.8597227266683731E-01
C    1.2131131888644602E-01    3.5398574712626418E-01    3.4951630757461438E-01
N    1.3698732567926655E-01    3.1308955137544398E-01    3.7833736450256633E-01
N    1.1856369987491973E-01    4.0279105672394011E-01    3.6650655102389096E-01
H    1.0614721041387902E-01    3.4673434603641523E-01    3.0992608975493829E-01
H    1.4015253976057793E-01    2.7775823216207723E-01    3.5857941837812179E-01
H    1.5321323626515668E-01    3.1527273408580903E-01    4.1515626989372723E-01
H    1.1911992823369968E-01    4.1522479594985129E-01    4.0518733692938580E-01
H    1.0790736308292098E-01    4.3324695942651781E-01    3.4246540437941264E-01
Pb   -8.3982474433398902E-03    4.9056122036817307E-01    2.3520303514857246E-01
I    1.1477649517722757E-01    4.7987727327647273E-01    2.5212301967534090E-01
I   -4.0099597390313817E-03    3.6413035844842534E-01    2.4911981586912207E-01
I   -2.8151938098924557E-03    4.9560884461349314E-01    3.7238786212613900E-01
C    3.9012222706684679E-01    3.6636809973754791E-01    3.6864588871108778E-01
N    3.6918168617270247E-01    3.2669125082265721E-01    3.9112655316095624E-01
N    3.6890242870500151E-01    4.1442737651019396E-01    3.6878319943982690E-01
H    4.2761793118041541E-01    3.6190236414515242E-01    3.4738871446772757E-01
H    3.8589397362737243E-01    2.9116465238423223E-01    3.9618966618727858E-01
H    3.3131556666824591E-01    3.3298306299961744E-01    4.0641727104229813E-01
H    3.3453133450863620E-01    4.2133817275737545E-01    3.8940605079744861E-01
H    3.7989527202616935E-01    4.4679926254532537E-01    3.5032800729548075E-01
Pb    2.5370437990188055E-01    4.9067290444199618E-01    2.5531410582665348E-01
I    3.7327562890221122E-01    4.9707288129960858E-01    2.3299652974855672E-01
I    2.5102310314301485E-01    3.6428079657006962E-01    2.6226963463001052E-01
I    2.5036639963942608E-01    4.9862017726618496E-01    3.7925787246238191E-01
C    6.1891211837004856E-01    3.5815283842752288E-01    3.6267587236822491E-01
N    6.6202724409021196E-01    3.8633410059322248E-01    3.6731827978424031E-01
N    6.1323610635620529E-01    3.0873359443265436E-01    3.7733213540870114E-01
H    5.8379477304962124E-01    3.7567919996215449E-01    3.4546218150578351E-01
H    6.5961294502675738E-01    4.2792381267335777E-01    3.6236480803549515E-01
H    6.9977883639276284E-01    3.6982112612529966E-01    3.7047912674826600E-01
H    6.3934339706384247E-01    2.8726315762862220E-01    3.9935304104684388E-01
H    5.7648902331258334E-01    2.9147682962097915E-01    3.6995598514200229E-01
Pb    4.9594564997668511E-01    4.8577558961761419E-01    2.3705065001274492E-01
I    6.1818563961428152E-01    4.8786558515154810E-01    2.6491469690653846E-01
I    4.9833367866490536E-01    3.6495621345240686E-01    2.5085012656034766E-01
I    4.8742236694519964E-01    4.9817578748735997E-01    3.6334703983888189E-01
C    9.0456271307808322E-01    3.5994828713940930E-01    3.7866318808574972E-01
N    8.8214736970022423E-01    4.0775267166903889E-01    3.7716868859478142E-01
N    8.8375652876743316E-01    3.1521984987396801E-01    3.9361843309084621E-01
H    9.4578547657910073E-01    3.5728725840064574E-01    3.6867235056188674E-01
H    9.0577342688524143E-01    4.3841722446808090E-01    3.6489118846814361E-01
H    8.4314248086271926E-01    4.1429352971314876E-01    3.8325219050791215E-01
H    8.4469048814505587E-01    3.1063033642705057E-01    4.0626905587654083E-01
H    9.0630418840033555E-01    2.8140955575635818E-01    3.9504816006540278E-01
Pb    7.4490100551130090E-01    4.9541668313313619E-01    2.5685325362724376E-01
I    8.7483635131704762E-01    5.1035334917966346E-01    2.4854210590621181E-01
I    7.8641947017034852E-01    3.7708463250651392E-01    2.9070048655810365E-01
I    7.3160101159175139E-01    5.2184615441281645E-01    3.7912379220407921E-01
C    1.0910031131315467E-01    6.0088710544904755E-01    3.8305340690467138E-01
N    1.3277756503585453E-01    6.2495249902142103E-01    4.2406218988949007E-01
N    1.1862476997844530E-01    6.1172968689048701E-01    3.3281582091988721E-01
H    8.1135313182294638E-02    5.6843102449049998E-01    3.9585041399065751E-01
H    1.1738868660431434E-01    6.1593448705808318E-01    4.6207432219266559E-01
H    1.6150572734011923E-01    6.5459687601248129E-01    4.1746725219289538E-01
H    1.4348097067336701E-01    6.4264359785396052E-01    3.2315937192450328E-01
H    9.6043547107971583E-02    5.9476435079614121E-01    3.0264833702327493E-01
Pb    1.5169531846551709E-02    7.2988336803655596E-01    2.5322857020103878E-01
I    1.2804656912596918E-01    7.4304211125432584E-01    2.4141433113308580E-01
I    1.6044765929144424E-02    6.1342965201755528E-01    2.2770801779751434E-01
I    4.5047778135230924E-03    7.3343687092870757E-01    3.7939032155748587E-01
C    3.8380169718457563E-01    6.2560300931257218E-01    3.7621071021378422E-01
N    3.5206729164448985E-01    6.0986669078058275E-01    4.1448660335560611E-01
N    3.9202067335809226E-01    6.0311345618992118E-01    3.2999102666498931E-01
H    4.0511458812679679E-01    6.6288455840822424E-01    3.8730211827549460E-01
H    3.5411438423851116E-01    6.2911877287787765E-01    4.5122736373308836E-01