 # Version information for this restart file 
 # current date 2021-09-10 19:30:25.420
 # current working dir /projectsp/f_rcr78_1/MW/Hybrid_Perovskite/FAPbI3/300K/MLWFC3
 # Program compiled at                              Fri Sep 13 14:50:45 EDT 2019
 # Program compiled on                             slepner083.amarel.rutgers.edu
 # Program compiled for                                                    local
 # Source code revision number                                       git:e35496b
 &GLOBAL
   PRINT_LEVEL  LOW
   PROJECT_NAME FPB_MD_300
   RUN_TYPE  MD
   WALLTIME 47:58:00
 &END GLOBAL
 &MOTION
   &MD
     ENSEMBLE  NVT
     STEPS  5000
     TIMESTEP     9.9999999999999989E-01
     STEP_START_VAL  9334
     TIME_START_VAL     9.3339999999989886E+03
     ECONS_START_VAL    -4.2642859995950075E+03
     TEMPERATURE     3.0000000000000000E+02
     COMVEL_TOL     1.0000000000000000E-08
     &THERMOSTAT
       TYPE  CSVR
       &CSVR
         TIMECON     9.9999999999999986E+01
         &THERMOSTAT_ENERGY
              -4.7106510841674931E-01
         &END THERMOSTAT_ENERGY
         &RNG_INIT
Wiener process for Thermostat # 1        1 F T F   3.6530609762482756E-02        3095291681.0        3608474169.0        1918009058.0         243006961.0        1413769995.0        1418603359.0             12345.0             12345.0             12345.0             12345.0             12345.0             12345.0             12345.0             12345.0             12345.0             12345.0             12345.0             12345.0
         &END RNG_INIT
       &END CSVR
     &END THERMOSTAT
     &AVERAGES  T
       &RESTART_AVERAGES
         ITIMES_START  1
         AVECPU     4.2778073581671833E+02
         AVEHUGONIOT     0.0000000000000000E+00
         AVETEMP_BARO     0.0000000000000000E+00
         AVEPOT    -4.2648771457288258E+03
         AVEKIN     1.0837593707776103E+00
         AVETEMP     2.9745652648311028E+02
         AVEKIN_QM     0.0000000000000000E+00
         AVETEMP_QM     0.0000000000000000E+00
         AVEVOL     1.0988776726607233E+05
         AVECELL_A     4.8433380039726032E+01
         AVECELL_B     4.7361225164589960E+01
         AVECELL_C     4.7905088028159518E+01
         AVEALPHA     9.0000000000000000E+01
         AVEBETA     9.0000000000000000E+01
         AVEGAMMA     9.0000000000000000E+01
         AVE_ECONS     5.8010661083875563E+00
         AVE_PRESS     0.0000000000000000E+00
         AVE_PXX     0.0000000000000000E+00
       &END RESTART_AVERAGES
     &END AVERAGES
   &END MD
   &PRINT
     &TRAJECTORY  SILENT
       &EACH
         MD  1
       &END EACH
     &END TRAJECTORY
     &VELOCITIES  SILENT
       &EACH
         MD  1
       &END EACH
     &END VELOCITIES
     &FORCES  SILENT
       &EACH
         MD  1
       &END EACH
     &END FORCES
     &STRESS  SILENT
       &EACH
         MD  1
       &END EACH
     &END STRESS
     &RESTART  SILENT
       BACKUP_COPIES  3
       &EACH
         MD  1
       &END EACH
     &END RESTART
     &RESTART_HISTORY  SILENT
       &EACH
         MD  5
       &END EACH
     &END RESTART_HISTORY
   &END PRINT
 &END MOTION
 &FORCE_EVAL
   METHOD  QS
   &DFT
     BASIS_SET_FILE_NAME BASIS_MOLOPT
     POTENTIAL_FILE_NAME GTH_POTENTIALS
     MULTIPLICITY  1
     CHARGE  0
     &SCF
       MAX_SCF  30
       EPS_SCF     1.0000000000000001E-05
       CHOLESKY  INVERSE
       SCF_GUESS  ATOMIC
       ADDED_MOS  20
       &DIAGONALIZATION  T
         ALGORITHM  STANDARD
       &END DIAGONALIZATION
       &OUTER_SCF  T
         EPS_SCF     1.0000000000000001E-05
         MAX_SCF  10
       &END OUTER_SCF
       &SMEAR  T
         METHOD  FERMI_DIRAC
         ELECTRONIC_TEMPERATURE     5.0000000000000007E+01
       &END SMEAR
       &MIXING  T
         METHOD  BROYDEN_MIXING
         ALPHA     4.0000000000000002E-01
         BETA     5.9999999999999998E-01
         NBUFFER  8
       &END MIXING
       &PRINT
         &RESTART  OFF
         &END RESTART
       &END PRINT
     &END SCF
     &QS
       EPS_DEFAULT     1.0000000000000000E-10
       EXTRAPOLATION  ASPC
       METHOD  GPW
     &END QS
     &MGRID
       NGRIDS  4
       CUTOFF     4.0000000000000000E+02
       REL_CUTOFF     8.0000000000000000E+01
     &END MGRID
     &XC
       DENSITY_CUTOFF     1.0000000000000000E-10
       GRADIENT_CUTOFF     1.0000000000000000E-10
       TAU_CUTOFF     1.0000000000000000E-10
       &XC_FUNCTIONAL  NO_SHORTCUT
         &PBE  T
         &END PBE
       &END XC_FUNCTIONAL
     &END XC
     &POISSON
       PERIODIC  XYZ
     &END POISSON
     &LOCALIZE  T
       EPS_LOCALIZATION     1.0000000000000001E-05
       METHOD  JACOBI
       &PRINT
         &WANNIER_CENTERS  SILENT
           IONS+CENTERS  T
         &END WANNIER_CENTERS
         &WANNIER_SPREADS  SILENT
         &END WANNIER_SPREADS
       &END PRINT
     &END LOCALIZE
     &REAL_TIME_PROPAGATION
       INITIAL_WFN  SCF_WFN
     &END REAL_TIME_PROPAGATION
     &PRINT
       &MO_CUBES  SILENT
         WRITE_CUBE  F
         NLUMO  4
         NHOMO  4
         &EACH
           MD  10
         &END EACH
       &END MO_CUBES
       &E_DENSITY_CUBE  OFF
       &END E_DENSITY_CUBE
     &END PRINT
   &END DFT
   &SUBSYS
     &CELL
       A     2.5629840852000001E+01    0.0000000000000000E+00    0.0000000000000000E+00
       B     0.0000000000000000E+00    2.5062480927999999E+01    0.0000000000000000E+00
       C     0.0000000000000000E+00    0.0000000000000000E+00    2.5350280760000000E+01
       MULTIPLE_UNIT_CELL  1 1 1
     &END CELL
     &COORD
C    1.2972386485668974E-01    1.2541385371450689E-01    1.4474498873461944E-01
N    1.2595239194931612E-01    1.6146427205772415E-01    1.0703055439996299E-01
N    1.2544330742919405E-01    7.2729046563631661E-02    1.3564556302339503E-01
H    1.3551840288056319E-01    1.3849290260824376E-01    1.8458165552909619E-01
H    1.2955621176844759E-01    1.9822827118881198E-01    1.2248988184038205E-01
H    1.2258312857870662E-01    1.5338451306756212E-01    6.6201982592650505E-02
H    1.3179078459652302E-01    5.7943882021354282E-02    9.8432581055909948E-02
H    1.2509150752323925E-01    4.8815440776988225E-02    1.6869492013404488E-01
Pb   -5.4010763030181803E-03    2.3181522276459962E-01    2.6661555486927084E-03
I    1.2892700819753586E-01    2.4839242965762895E-01   -2.0230582425605801E-02
I    1.8532857893657939E-02    9.8107269226376498E-02    3.0752681210567040E-02
I    5.9221132488350356E-03    2.5652656846211458E-01    1.2698056295698601E-01
C    3.9298470421999554E-01    9.4523620094350877E-02    1.2256345689733646E-01
N    3.5442156526939594E-01    1.2446131173570756E-01    1.3956418223367489E-01
N    4.3958816419110425E-01    1.1369651338675686E-01    1.1434266525751643E-01
H    3.8755372688779888E-01    5.2930871338116796E-02    1.1432130691419867E-01
H    3.2102828766936320E-01    1.0649050895551422E-01    1.5158953749825019E-01
H    3.6399755612318074E-01    1.6161674791829228E-01    1.5521731058017377E-01
H    4.4920395975071686E-01    1.5453314475094615E-01    1.1597432874711647E-01
H    4.7101398555464813E-01    9.0063500967907245E-02    1.0964472779460352E-01
Pb    2.4756588581302749E-01    2.4405473391484389E-01    2.3109641245190431E-03
I    3.7084265508829306E-01    2.4990430076029346E-01    3.4453301750969903E-02
I    2.3096999203185237E-01    1.0969909591371019E-01    2.8941123112342474E-05
I    2.4282365985563106E-01    2.7981053799829458E-01    1.2463008308802907E-01
C    6.3382262331846551E-01    1.3242794581149267E-01    1.4875822114181991E-01
N    6.2346483936582131E-01    8.4216633326808732E-02    1.2572090714275216E-01
N    6.3071760660117093E-01    1.7739768925473584E-01    1.2339996215004045E-01
H    6.4858649011115665E-01    1.3360704043138502E-01    1.8901863302068397E-01
H    6.2010410298468321E-01    5.0422419628959582E-02    1.4866202314471058E-01
H    6.0780759682029295E-01    8.4097499365139522E-02    8.7563665979896232E-02
H    6.1633330930821706E-01    1.8193903154453422E-01    8.7385471369603396E-02
H    6.3250988893862015E-01    2.1247023274279578E-01    1.4379296742648745E-01
Pb    4.9332410458817949E-01    2.3156883779591539E-01    9.7482446147874775E-03
I    6.2644770917753023E-01    2.5915991452303627E-01    1.3537094607775772E-03
I    5.3062931264817992E-01    1.1196727505795659E-01    1.1959815554386110E-02
I    5.0630939642425099E-01    2.3803691070055816E-01    1.3229582054180855E-01
C    8.8458239586485632E-01    1.1753325567566551E-01    1.5399699648392590E-01
N    8.3604174482313631E-01    1.0203624105316622E-01    1.6392961417262875E-01
N    9.0999525341315068E-01    1.0965137115528559E-01    1.0997762380876361E-01
H    9.0667212075065329E-01    1.3915433266819610E-01    1.8476314693910784E-01
H    8.1647590204857934E-01    1.1758762059229580E-01    1.9498154010782026E-01
H    8.1142539722701923E-01    8.7687893126856722E-02    1.3616491915781587E-01
H    8.9367012889161968E-01    9.3372555436786298E-02    7.8035024165897443E-02
H    9.4896469136474992E-01    1.1914253984119741E-01    1.0816324722936722E-01
Pb    7.5204244860168901E-01    2.5149031438622244E-01    6.8086516077162651E-03
I    8.7889897662199845E-01    2.1544621192812316E-01    9.7531641326658123E-03
I    7.3654712007652534E-01    1.2192335323924947E-01    4.1047614629065809E-02
I    7.5448365115034643E-01    2.5934238881875699E-01    1.2889966342744047E-01
C    1.0411127994036448E-01    3.5547777108077339E-01    1.3141911294509601E-01
N    1.3749380598654712E-01    3.6375753223733154E-01    1.6878609041244955E-01
N    1.1849973745186836E-01    3.4989402729056690E-01    8.0042136783408380E-02
H    6.4086893469332565E-02    3.5575991509659394E-01    1.4414736495784086E-01
H    1.2560036978170613E-01    3.6518039773345462E-01    2.0558338970500120E-01
H    1.7621853656945810E-01    3.6412883106539212E-01    1.6037022188566855E-01
H    1.5766788568069434E-01    3.5180897582233162E-01    6.7485955888923227E-02
H    9.0382440294950100E-02    3.5228455778425311E-01    5.2021973966271180E-02
Pb   -6.4951202387636582E-04    4.8523896508760722E-01   -3.0537411574337956E-03
I    1.2848200611010746E-01    4.8347475158249809E-01    1.3951686727007851E-02
I   -1.7394620132795482E-02    3.5481170982088739E-01   -6.6984532749670197E-03
I    1.2510947062291496E-02    4.6072573041359127E-01    1.1851387765640026E-01
C    3.8746852865514275E-01    3.6263266946515083E-01    1.3265482547793014E-01
N    3.7097864271976450E-01    3.9755883549697701E-01    9.7541866045981820E-02
N    3.5653834099911630E-01    3.4315800136581348E-01    1.6975875226903991E-01
H    4.2795788867130014E-01    3.4614069091691330E-01    1.3382274945376538E-01
H    3.9394785577966573E-01    4.0868643331755505E-01    6.6171624076843419E-02
H    3.3186191316626540E-01    4.0465581099014131E-01    9.1250265492143018E-02
H    3.2124841055165781E-01    3.6047726594270069E-01    1.7499374406044613E-01
H    3.6698358597903125E-01    3.1499814890334221E-01    1.9882314965723363E-01
Pb    2.4787795011215913E-01    4.8701474574404696E-01    1.4482354623659268E-02
I    3.8059844128213866E-01    5.0281972344360593E-01    1.0663824132279622E-02
I    2.5968924135232502E-01    3.6443341985163757E-01   -2.0498206395365835E-02
I    2.3990382490966788E-01    4.4968577257785497E-01    1.3179492792728806E-01
C    6.5763739487683781E-01    3.5740009960777869E-01    1.3361817248762586E-01
N    6.1462409020203357E-01    3.4662099939182667E-01    1.0739811589554375E-01
N    6.5450829796871601E-01    3.7689912738245246E-01    1.8224802585813896E-01
H    6.9474596664931298E-01    3.4843957301801159E-01    1.1508371264035368E-01
H    6.1832903296057307E-01    3.3251849977551379E-01    6.9343784888706336E-02
H    5.7689121147121747E-01    3.5132574429890251E-01    1.1891352234137335E-01
H    6.2015255928027302E-01    3.8735092172300734E-01    1.9919496108103368E-01
H    6.8971557332433342E-01    3.8183461225759618E-01    2.0397623211531388E-01
Pb    5.0545449684483057E-01    4.8780175987831770E-01    6.2247380111516296E-03
I    6.2862304084341769E-01    4.8036251805106500E-01   -1.7719604593922297E-02
I    4.8462446207094279E-01    3.5666910233280053E-01   -4.4965015297291635E-04
I    5.3797377348046393E-01    4.7328537472128224E-01    1.1602087745831444E-01
C    8.9965904806700026E-01    3.5110860201370414E-01    1.1368610723249170E-01
N    8.8306407112488461E-01    3.9567545194053477E-01    9.0090358915476884E-02
N    8.8976290615313847E-01    3.3920457354867839E-01    1.6354588256481553E-01
H    9.2898821929881648E-01    3.2638911739335452E-01    9.3329299491742637E-02
H    8.9283758150010040E-01    3.9929317828129951E-01    5.0700024934803981E-02
H    8.5613801005046897E-01    4.2220443381556666E-01    1.0549244240318285E-01
H    8.6931870583361714E-01    3.6531002255978334E-01    1.8840802607551305E-01
H    9.0640077145195475E-01    3.0536263453280099E-01    1.7984501874844416E-01
Pb    7.4368713697874522E-01    4.8237954042768910E-01   -5.1693446107317388E-03
I    8.8250143521921232E-01    5.0898497426431566E-01    6.1136766490849839E-03
I    7.8238709691341557E-01    3.6526608088959478E-01   -3.0878665375800682E-02
I    7.5100926268130896E-01    4.6350648003160727E-01    1.1660356624962860E-01
C    1.1913855385284319E-01    5.9441332249125833E-01    1.2004680990341654E-01
N    1.5509018112695419E-01    5.6688874970364000E-01    1.4589876491628878E-01
N    1.0984636529840537E-01    6.4620816418468197E-01    1.2772427077221610E-01
H    9.7202316695754312E-02    5.7632104281182683E-01    8.8977773623370657E-02
H    1.5988850180836670E-01    5.2812484036242835E-01    1.3894516198815676E-01
H    1.7546517399730793E-01    5.8292996431156130E-01    1.7502250801514793E-01
H    1.2540548940123436E-01    6.6606107898165134E-01    1.5846124604627140E-01
H    7.5081522895359812E-02    6.6345929713027840E-01    1.1314350431344650E-01
Pb    5.9394378935357910E-03    7.3328751357677946E-01   -7.0031758114400796E-03
I    1.2583789547772112E-01    7.2106763160345955E-01   -3.2920375795085118E-02
I    9.9782174052862448E-03    6.0956548584986503E-01    1.1064033781810173E-02
I   -1.7607681803676488E-03    7.5089009690498498E-01    1.2201013525551900E-01
C    3.6877123138997736E-01    6.1635566295664113E-01    1.3428813288564947E-01
N    4.0456565641782460E-01    6.1364298819008412E-01    9.6409348497016198E-02
N    3.1764058362726483E-01    6.1799622416373090E-01    1.3152111601101307E-01
H    3.8197417488361157E-01    6.1647590158432441E-01    1.7611343922359057E-01
H    4.4213360953206499E-01    6.2162535587252987E-01    1.0942546325899405E-01
H    3.9684422348216192E-01    6.2191184705345437E-01    5.7181971549288300E-02
H    2.9878385861462986E-01    6.2661035362934903E-01    9.8755680939873774E-02
H    2.9709907949663500E-01    6.1544499746061088E-01    1.6603632090309367E-01
Pb    2.5900230429043541E-01    7.3529300441022349E-01   -1.8523967168058064E-03
I    3.7640339065512401E-01    7.1179072722695258E-01    2.6317361294306532E-03
I    2.3408346872977898E-01    6.1456474161927543E-01    2.2279283634120475E-03
I    2.2615566260341824E-01    7.4005222780112567E-01    1.2701908674607224E-01
C    6.2658920263873585E-01    6.3832222004997041E-01    1.3408782978141223E-01
N    6.3097512962730595E-01    5.8559564815879162E-01    1.4016231199081183E-01
N    5.9540712271396334E-01    6.6102868119395941E-01    1.0041937938508522E-01
H    6.5302031362176560E-01    6.6454356520097058E-01    1.5753790875774809E-01
H    6.5857836236117051E-01    5.7840753536713696E-01    1.6834723352452186E-01
H    6.0361202834108763E-01    5.5946622121798772E-01    1.2924247508974057E-01
H    5.6737864109214819E-01    6.3997723335120305E-01    7.9031288117732176E-02
H    5.9474325912040837E-01    7.0159798969848974E-01    9.5800588869325437E-02
Pb    5.0342719449603979E-01    7.3462420143213725E-01    3.4714260433576908E-03
I    6.1923868342836430E-01    7.6482790196224804E-01    1.9660527170239496E-03
I    5.0558909934676011E-01    6.0901834148444856E-01   -1.2443795925150131E-02
I    4.7894609509611397E-01    7.4551761163273689E-01    1.2706793694889107E-01
C    8.7779247803734384E-01    6.0631579182651330E-01    1.0737206142997889E-01
N    8.6570343485988455E-01    6.4958005064110413E-01    1.3503068969253379E-01
N    8.7155638162826987E-01    5.5729985473517818E-01    1.2397270972123729E-01
H    8.8722408940536623E-01    6.1211588503791325E-01    6.5835738715881525E-02
H    8.7325541128210171E-01    6.8421846792691710E-01    1.1545678238901209E-01
H    8.5709291849134661E-01    6.5290261685273143E-01    1.7483937272781883E-01
H    8.6518105642040755E-01    5.4669519118113841E-01    1.6202651044178926E-01
H    8.7553522153381369E-01    5.2877366435486417E-01    9.4595551358953534E-02
Pb    7.5432192368004503E-01    7.2766810618020017E-01   -5.5712313250370004E-04
I    8.7679554680122918E-01    7.2172380419965187E-01   -2.8596091639554121E-03
I    7.2740403983135427E-01    6.0646761371520197E-01    2.1167267869954650E-02
I    7.3251638322993895E-01    7.7186535827063241E-01    1.1921946985520698E-01
C    1.3056804511971942E-01    8.6851964486875233E-01    1.0161699200252028E-01
N    1.3003780893119810E-01    8.3769560206210547E-01    5.9170074033421387E-02
N    1.1789889928460372E-01    8.5906550437947093E-01    1.5290739746186496E-01
H    1.5057213002346070E-01    9.0704638637538781E-01    9.4736950124521352E-02
H    1.3971512843671274E-01    8.5936081704554235E-01    2.4588521095950534E-02
H    1.2127981442173624E-01    7.9820447146745088E-01    6.0269447429614376E-02
H    9.6306770489868243E-02    8.2517318739030432E-01    1.6256505993999826E-01
H    1.3016310523877395E-01    8.8839587930309660E-01    1.7974778825454354E-01
Pb   -1.1359565024132079E-02    9.8160544706854425E-01   -7.1242250236682658E-03
I    1.2804351282169019E-01    9.7255600931392960E-01   -2.4030773288842056E-02
I   -2.0814093339129515E-02    8.5159845172332838E-01   -3.4735680388110875E-02
I    5.4029901052490576E-04    9.4202021498976718E-01    1.1263456208880147E-01
C    3.7127976499099508E-01    8.7707062413815295E-01    1.3405903811894601E-01
N    3.5673521547398834E-01    8.4340142055261036E-01    9.6762651952617851E-02
N    4.0050063083860560E-01    8.6006081781438792E-01    1.7371125612225136E-01
H    3.6406416332725855E-01    9.1907392311070579E-01    1.2943301204754720E-01
H    3.3801449222018110E-01    8.5896597005359243E-01    6.5301405472970850E-02
H    3.7002270595643921E-01    8.0444201611949051E-01    9.8114881822403105E-02
H    3.9623387405027893E-01    8.2015731731954389E-01    1.7925553574602623E-01
H    4.0309728633448655E-01    8.8704188854657939E-01    2.0409289547937068E-01
Pb    2.4011948946445466E-01    9.8842027719632342E-01   -8.3536782631733093E-03
I    3.7218833580706800E-01    1.0105858227467495E+00    4.7737852523371928E-03
I    2.6040826171829173E-01    8.5721297552343945E-01   -2.4025512341161265E-02
I    2.3513197530812824E-01    9.6186499151504390E-01    1.2571759102482047E-01
C    5.9615101606453735E-01    8.7964921812036656E-01    1.4204752413272317E-01
N    6.4694992034982846E-01    8.7375331618432517E-01    1.4792075859450615E-01
N    5.6845597153803340E-01    8.4919636632750883E-01    1.1065812781583348E-01
H    5.7420658124051915E-01    9.1294268291573533E-01    1.5881090603336456E-01
H    6.6615523376954511E-01    9.0092331652147528E-01    1.7330273955279693E-01
H    6.6601523941173202E-01    8.3803841215439923E-01    1.4254108995605258E-01
H    5.8776708290810831E-01    8.1917163184690533E-01    9.0290229606972083E-02
H    5.3096860944279778E-01    8.5882118608956470E-01    1.0085772793909997E-01
Pb    4.9035516387901251E-01    9.8279459505768574E-01   -2.8939566709605094E-03
I    6.1621302527299338E-01    9.6893436688752055E-01   -4.2540340536395627E-03
I    4.7237620589330048E-01    8.5930030347019715E-01    7.2314770638577264E-03
I    4.8136301257151659E-01    9.7809189854728673E-01    1.2469581509472089E-01
C    8.5245920945736320E-01    8.6830291049570507E-01    1.1784840110933686E-01
N    8.8247991475858600E-01    8.4798749104706084E-01    8.1571454518614986E-02
N    8.6806178713201776E-01    8.7600773975857760E-01    1.6592365370467207E-01
H    8.1417274088068603E-01    8.8148234144040505E-01    1.0422737774660439E-01
H    8.7134060178713857E-01    8.4924720716659874E-01    4.3063576967302154E-02
H    9.1967821124688720E-01    8.3881103359010312E-01    8.6232226076403157E-02
H    9.0244447704191988E-01    8.6720113383269049E-01    1.8149252292463247E-01
H    8.3763569997733456E-01    8.8435424255332007E-01    1.9282889518422480E-01
Pb    7.3409559500891153E-01    9.9327925127776695E-01   -2.2940642885235581E-03
I    8.7340411670221685E-01    1.0147037619438137E+00   -1.1616079801908424E-03
I    7.7245624956074010E-01    8.6520708911027844E-01   -2.2706015006326231E-02
I    7.5123686266376433E-01    9.9030649502926338E-01    1.2505290486624029E-01
C    1.2409971402992238E-01    1.3293116021807866E-01    3.6175255164261871E-01
N    1.0779152969308804E-01    9.4569219687958020E-02    3.2842898910601270E-01
N    1.0541829059266367E-01    1.3866019458505252E-01    4.0973456323159746E-01
H    1.5855000735329525E-01    1.5699284589559878E-01    3.4944980637582002E-01
H    1.3243491556114262E-01    8.8175799628653850E-02    2.9830584337833987E-01
H    8.1007783392917532E-02    6.7378306618548656E-02    3.3587675405292861E-01
H    7.5895506132159521E-02    1.1544001631149997E-01    4.2414874317094098E-01
H    1.1436287954315494E-01    1.7122945425883362E-01    4.3170801127469027E-01
Pb    7.7656605017693652E-04    2.3747955172495938E-01    2.5496614379093291E-01
I    1.2527710726193214E-01    2.4692252849956242E-01    2.4865065252887505E-01
I    1.1885830385768074E-02    1.1146007669970527E-01    2.2489060941371791E-01
I    7.4653533945285809E-03    2.6139685185252631E-01    3.7724362998967764E-01
C    3.9998624626647056E-01    1.2030675000010316E-01    3.6087825928248379E-01
N    3.7544697574126024E-01    1.0692471393630497E-01    3.1780075955422954E-01
N    3.7929997390946013E-01    1.2490033482022846E-01    4.0877869261813221E-01
H    4.4083717092322872E-01    1.2677367407372217E-01    3.5189195615410257E-01
H    3.9851939695793126E-01    1.0233949824991577E-01    2.8505971893707888E-01
H    3.3700130521393001E-01    9.4297024886648040E-02    3.1646458488059476E-01
H    3.4015250058642643E-01    1.2077676594021189E-01    4.1892037583149389E-01
H    4.0348210479612595E-01    1.3896356523855599E-01    4.3960126865677146E-01
Pb    2.5853789926319254E-01    2.4096042978557974E-01    2.4553230158540984E-01
I    3.8571126688056229E-01    2.3434144736527926E-01    2.5430850516594061E-01
I    2.4528986495425614E-01    1.2095563391109283E-01    2.2379166190559396E-01
I    2.4801568963337239E-01    2.1566146734249286E-01    3.7925460850851272E-01
C    6.0532615953831670E-01    1.0864707623806689E-01    3.9625953734976571E-01
N    6.3881493029837511E-01    7.9846401297826441E-02    3.6612876497092633E-01
N    6.1808222836218762E-01    1.2544430574151369E-01    4.4401210968971466E-01
H    5.6577113877945062E-01    1.1218964713178610E-01    3.8027568431870767E-01
H    6.2657934629432122E-01    7.2194350771951799E-02    3.2788775456084246E-01
H    6.7553134788272229E-01    6.4596119761693008E-02    3.7418646793926047E-01
H    6.5521469664343579E-01    1.2296361759355379E-01    4.5773912486776103E-01
H    5.8813752907240680E-01    1.3199685425208688E-01    4.7041262127763817E-01
Pb    5.0816875741484269E-01    2.3600132015499539E-01    2.6304451294094222E-01
I    6.2931543113021482E-01    2.3073706567969618E-01    2.6897611863946580E-01
I    5.0711391555072771E-01    1.0909155462613931E-01    2.5516197863204754E-01
I    4.9781603035895833E-01    2.1729172809139211E-01    3.8614673472693428E-01
C    8.9415664860671595E-01    1.0419568981571393E-01    3.7690000184014733E-01
N    8.4432240601328501E-01    9.9822817327908861E-02    3.9074694939615739E-01
N    9.2598852522644026E-01    1.3384937417157211E-01    4.0248877787883713E-01
H    9.0915861323822478E-01    8.1442497763746097E-02    3.4429784525691232E-01
H    8.1870996974422539E-01    7.7579964292524575E-02    3.6897597842071672E-01
H    8.2949972857326160E-01    1.2040592744007969E-01    4.2081075728331946E-01
H    9.1653754502151408E-01    1.5898808068368345E-01    4.3299749128843329E-01
H    9.6413595477947733E-01    1.3613129108452754E-01    3.9065506755282942E-01
Pb    7.6301661305440005E-01    2.5289177751916797E-01    2.5006043806627637E-01
I    8.7906252878003155E-01    2.1654275061761205E-01    2.7183166958280952E-01
I    7.4160131822033670E-01    1.2214726375494749E-01    2.6075890478615432E-01
I    7.5611055988703302E-01    2.3691186374399498E-01    3.8602110364138442E-01
C    1.2141031572049736E-01    3.5433638215092189E-01    3.4893353523246290E-01
N    1.3680795979552574E-01    3.1353694772047858E-01    3.7795653460147749E-01
N    1.1820974121595276E-01    4.0284409414510802E-01    3.6665934985030663E-01
H    1.0778511817880854E-01    3.4802682303731308E-01    3.0920121951945284E-01
H    1.4252660423922284E-01    2.7684934860357585E-01    3.5746696492669072E-01
H    1.5064182945132371E-01    3.1619991232585132E-01    4.1506306280761418E-01
H    1.1985183344046529E-01    4.1586639359898403E-01    4.0645187087389173E-01
H    1.1040212450548438E-01    4.3215173944715085E-01    3.4109904556324877E-01
Pb   -8.5650889758244943E-03    4.9057971299327657E-01    2.3532829423421364E-01
I    1.1482147129556315E-01    4.8003896713032990E-01    2.5206819598003738E-01
I   -4.0843806421063554E-03    3.6428505159491892E-01    2.4918531914765851E-01
I   -2.7399565608767838E-03    4.9569376836455070E-01    3.7245837829631001E-01
C    3.9042963772649342E-01    3.6703614313041805E-01    3.6879735870751384E-01
N    3.6911572253305247E-01    3.2612909348569141E-01    3.9046369253960789E-01
N    3.6907409648920525E-01    4.1426570432956206E-01    3.6883183945797393E-01
H    4.2801300210997739E-01    3.6283286428120959E-01    3.4987724973967105E-01
H    3.8865383182891561E-01    2.9054260712269275E-01    3.9511750643475396E-01
H    3.3219071430702757E-01    3.3198983440284291E-01    4.0497025076798943E-01
H    3.3636666012476685E-01    4.2097787169814727E-01    3.8868287662602774E-01
H    3.8098676603826642E-01    4.4940671615292832E-01    3.4918718166504686E-01
Pb    2.5370678387751699E-01    4.9073305383841631E-01    2.5523675435002946E-01
I    3.7328254205468914E-01    4.9689445259264470E-01    2.3306357093487021E-01
I    2.5083425160794065E-01    3.6431943286811441E-01    2.6237728048639319E-01
I    2.5061787606920893E-01    4.9857228731898573E-01    3.7916767043021843E-01
C    6.1856976365710281E-01    3.5824489162634376E-01    3.6344177737456224E-01
N    6.6189306306033113E-01    3.8623511123646720E-01    3.6758154327803938E-01
N    6.1361454911023272E-01    3.0843344963956293E-01    3.7717381372954217E-01
H    5.8476394907110030E-01    3.7727146717350779E-01    3.4775530653115383E-01
H    6.5861118114506378E-01    4.2673028712889166E-01    3.6222921793245921E-01
H    7.0090878159197401E-01    3.7145322794408930E-01    3.6982878998338764E-01
H    6.4044949781760041E-01    2.8696390387438386E-01    3.9804895562550940E-01
H    5.7687537648025422E-01    2.9176531413752776E-01    3.7035249479677029E-01
Pb    4.9584593464731241E-01    4.8577893732290378E-01    2.3689572864528918E-01
I    6.1826496775381246E-01    4.8771676847259282E-01    2.6493942110962221E-01
I    4.9844829045054267E-01    3.6454627103389203E-01    2.5071524261421529E-01
I    4.8755973000543074E-01    4.9793192121180097E-01    3.6327083509976588E-01
C    9.0426865363036646E-01    3.5961426439296723E-01    3.7886007173476077E-01
N    8.8269037976719267E-01    4.0750992233815470E-01    3.7751899307931686E-01
N    8.8402990015496630E-01    3.1510788651721072E-01    3.9360737400381168E-01
H    9.4519371549222198E-01    3.5683227966836895E-01    3.6650556099832882E-01
H    9.0601624965182670E-01    4.3904747163728486E-01    3.6552406392990361E-01
H    8.4499672276532023E-01    4.1549100338549799E-01    3.8219109785668504E-01
H    8.4556835155645349E-01    3.0983963897336381E-01    4.0649740463201695E-01
H    9.0638185607503463E-01    2.8161060874942562E-01    3.9542462603098716E-01
Pb    7.4497163663570964E-01    4.9525887915226113E-01    2.5686974704241111E-01
I    8.7509599151190787E-01    5.1044095291149971E-01    2.4856709986088596E-01
I    7.8638920402201162E-01    3.7699905184469173E-01    2.9071150106760030E-01
I    7.3164808213951371E-01    5.2194226572310332E-01    3.7918299570988578E-01
C    1.0882653944257405E-01    6.0021532451153614E-01    3.8319221346020632E-01
N    1.3287642018134338E-01    6.2461188686358182E-01    4.2383311056034317E-01
N    1.1835333011765502E-01    6.1136839798607179E-01    3.3296214235726912E-01
H    7.9835952425524839E-02    5.6879191509692839E-01    3.9626486282381140E-01
H    1.1839447594728013E-01    6.1706160612951610E-01    4.6131260992775713E-01
H    1.5882219901576394E-01    6.5503868135347776E-01    4.1624334755867304E-01
H    1.4397246762335209E-01    6.4290777479222461E-01    3.2548362079748938E-01
H    9.5443306846055551E-02    5.9287614298939595E-01    3.0221715696526719E-01
Pb    1.5080974926496687E-02    7.2977722990746441E-01    2.5333390583470622E-01
I    1.2775296570682698E-01    7.4309463912422413E-01    2.4151709483949918E-01
I    1.6126816058273111E-02    6.1357780306145970E-01    2.2792253329273640E-01
I    4.5080737593741933E-03    7.3327130277122177E-01    3.7945372999103960E-01
C    3.8449271555638170E-01    6.2546216128012055E-01    3.7661340443755176E-01
N    3.5220810704715799E-01    6.0908972404503847E-01    4.1470203619679213E-01
N    3.9150835029677933E-01    6.0349667319839972E-01    3.2934269155759860E-01
H    4.0515234226101554E-01    6.6228389438011703E-01    3.8968639178340636E-01
H    3.5287197164744782E-01    6.2937670377467669E-01    4.5032098180461744E-01