 # Version information for this restart file 
 # current date 2021-09-13 19:50:28.900
 # current working dir /projectsp/f_rcr78_1/MW/Hybrid_Perovskite/CsGeBr3/4x4/550K/WC
 # Program compiled at                              Fri Sep 13 14:50:45 EDT 2019
 # Program compiled on                             slepner083.amarel.rutgers.edu
 # Program compiled for                                                    local
 # Source code revision number                                       git:e35496b
 &GLOBAL
   PRINT_LEVEL  LOW
   PROJECT_NAME CGB_WC
   RUN_TYPE  MD
   WALLTIME 47:58:00
 &END GLOBAL
 &MOTION
   &MD
     ENSEMBLE  NVT
     STEPS  5000
     TIMESTEP     9.9999999999999989E-01
     STEP_START_VAL  10190
     TIME_START_VAL     1.0189999999998885E+04
     ECONS_START_VAL    -4.1284717054172052E+03
     TEMPERATURE     5.5000000000000000E+02
     COMVEL_TOL     1.0000000000000000E-08
     &THERMOSTAT
       TYPE  CSVR
       &CSVR
         TIMECON     9.9999999999999986E+01
         &THERMOSTAT_ENERGY
              -7.2385564082859133E-01
         &END THERMOSTAT_ENERGY
         &RNG_INIT
Wiener process for Thermostat # 1        1 F T F  -1.1585520731153600E+00        1822855325.0        2330226251.0        2070959331.0        2724924988.0        1406757058.0        2880731469.0             12345.0             12345.0             12345.0             12345.0             12345.0             12345.0             12345.0             12345.0             12345.0             12345.0             12345.0             12345.0
         &END RNG_INIT
       &END CSVR
     &END THERMOSTAT
     &AVERAGES  T
       &RESTART_AVERAGES
         ITIMES_START  1
         AVECPU     1.4906157636977812E+02
         AVEHUGONIOT     0.0000000000000000E+00
         AVETEMP_BARO     0.0000000000000000E+00
         AVEPOT    -4.1285259776334487E+03
         AVEKIN     8.3333959831626203E-01
         AVETEMP     5.4994256685871710E+02
         AVEKIN_QM     0.0000000000000000E+00
         AVETEMP_QM     0.0000000000000000E+00
         AVEVOL     7.6368394055423283E+04
         AVECELL_A     4.2426566442310715E+01
         AVECELL_B     4.2426566442310715E+01
         AVECELL_C     4.2426566442310715E+01
         AVEALPHA     9.0000000000000000E+01
         AVEBETA     9.0000000000000000E+01
         AVEGAMMA     9.0000000000000000E+01
         AVE_ECONS    -1.0424978175404556E+00
         AVE_PRESS     0.0000000000000000E+00
         AVE_PXX     0.0000000000000000E+00
       &END RESTART_AVERAGES
     &END AVERAGES
   &END MD
   &PRINT
     &TRAJECTORY  SILENT
       &EACH
         MD  1
       &END EACH
     &END TRAJECTORY
     &VELOCITIES  SILENT
       &EACH
         MD  1
       &END EACH
     &END VELOCITIES
     &FORCES  SILENT
       &EACH
         MD  1
       &END EACH
     &END FORCES
     &STRESS  SILENT
       &EACH
         MD  1
       &END EACH
     &END STRESS
     &RESTART  SILENT
       BACKUP_COPIES  3
       &EACH
         MD  1
       &END EACH
     &END RESTART
     &RESTART_HISTORY  SILENT
       &EACH
         MD  5
       &END EACH
     &END RESTART_HISTORY
   &END PRINT
 &END MOTION
 &FORCE_EVAL
   METHOD  QS
   &DFT
     BASIS_SET_FILE_NAME BASIS_MOLOPT
     POTENTIAL_FILE_NAME GTH_POTENTIALS
     MULTIPLICITY  1
     CHARGE  0
     &SCF
       MAX_SCF  30
       EPS_SCF     1.0000000000000001E-05
       SCF_GUESS  ATOMIC
       &OT  T
         MINIMIZER  DIIS
         PRECONDITIONER  FULL_SINGLE_INVERSE
       &END OT
       &OUTER_SCF  T
         EPS_SCF     1.0000000000000001E-05
         MAX_SCF  10
       &END OUTER_SCF
       &PRINT
         &RESTART  OFF
         &END RESTART
       &END PRINT
     &END SCF
     &QS
       EPS_DEFAULT     1.0000000000000000E-10
       EXTRAPOLATION  ASPC
       METHOD  GPW
     &END QS
     &MGRID
       NGRIDS  4
       CUTOFF     6.0000000000000000E+02
       REL_CUTOFF     8.0000000000000000E+01
     &END MGRID
     &XC
       DENSITY_CUTOFF     1.0000000000000000E-10
       GRADIENT_CUTOFF     1.0000000000000000E-10
       TAU_CUTOFF     1.0000000000000000E-10
       &XC_FUNCTIONAL  NO_SHORTCUT
         &PBE  T
         &END PBE
       &END XC_FUNCTIONAL
     &END XC
     &POISSON
       PERIODIC  XYZ
     &END POISSON
     &LOCALIZE  T
       USE_HISTORY  T
       EPS_LOCALIZATION     1.0000000000000001E-05
       METHOD  JACOBI
       &PRINT
         &WANNIER_CENTERS  SILENT
           IONS+CENTERS  T
         &END WANNIER_CENTERS
         &WANNIER_SPREADS  SILENT
         &END WANNIER_SPREADS
       &END PRINT
     &END LOCALIZE
     &REAL_TIME_PROPAGATION
       INITIAL_WFN  SCF_WFN
     &END REAL_TIME_PROPAGATION
     &PRINT
       &MO_CUBES  SILENT
         WRITE_CUBE  F
         NLUMO  4
         NHOMO  4
         &EACH
           MD  10
         &END EACH
       &END MO_CUBES
       &E_DENSITY_CUBE  OFF
       &END E_DENSITY_CUBE
     &END PRINT
   &END DFT
   &SUBSYS
     &CELL
       A     2.2451172000000000E+01    0.0000000000000000E+00    0.0000000000000000E+00
       B     0.0000000000000000E+00    2.2451172000000000E+01    0.0000000000000000E+00
       C     0.0000000000000000E+00    0.0000000000000000E+00    2.2451172000000000E+01
       MULTIPLE_UNIT_CELL  1 1 1
     &END CELL
     &COORD
Cs   -2.5341895050000314E-03    1.0075743595127605E-02   -1.8936430981917642E-02
Ge    1.1276367444089909E-01    1.4631952425965750E-01    1.3127078631427266E-01
Br    1.1444250657002368E-01    1.3979948447371066E-01    1.2432482613209679E-02
Br    1.1177556447018173E-01    2.6612321139155739E-03    1.1922207521452508E-01
Br   -9.3643415002226948E-03    1.1278403382917725E-01    1.1471375232638692E-01
Cs    2.4212572086069326E-01   -9.4887048945637581E-04    1.9488387010282641E-03
Ge    3.6600664656210186E-01    1.2029961386471330E-01    1.2591218580788188E-01
Br    3.4948464614912073E-01    1.0189833049697909E-01    1.2157453069691610E-02
Br    3.7931929885514093E-01    3.9919662162388649E-03    1.2732703963904834E-01
Br    2.5099325401727784E-01    1.2783195096714073E-01    1.3653686609528159E-01
Cs    4.9483783783334129E-01    5.0046023712497275E-03    1.5008584778436610E-02
Ge    6.2023727204315504E-01    1.2714561701250443E-01    1.1887956983832262E-01
Br    6.4388221962474257E-01    1.1455098485281076E-01   -9.2375417551180620E-04
Br    6.3125788932755411E-01    6.1537456087392608E-03    1.3985854670984138E-01
Br    5.0149277327920350E-01    1.3813807166239492E-01    1.0295477309470241E-01
Cs    7.5337393239340233E-01   -1.0989736072324086E-02   -5.1486038490927621E-03
Ge    8.6212752346962618E-01    1.2890019171505782E-01    1.0740565543166321E-01
Br    8.4264280695562233E-01    1.1032158839999472E-01   -6.3885685571430633E-03
Br    8.8396111512128506E-01   -2.7840265062424314E-03    1.1346728534468301E-01
Br    7.5279540358878805E-01    1.4920652626463796E-01    1.3823619571782342E-01
Cs   -1.0964522402923406E-03    2.5603044849760803E-01    3.9101200602392342E-03
Ge    1.2921919986966302E-01    3.8167435338097894E-01    1.3831056815212589E-01
Br    1.1622318044657230E-01    3.9425382149497057E-01    1.0673827616281316E-02
Br    1.3163687224810949E-01    2.5846717786153522E-01    1.2393651026359265E-01
Br    1.1861922043370405E-03    3.7204763635653865E-01    1.2640075924788274E-01
Cs    2.5631131935375578E-01    2.6018427489564855E-01    1.1780644395148825E-02
Ge    3.7643214711814804E-01    3.7326227707074344E-01    1.1715810632641178E-01
Br    3.7843585684595149E-01    3.9869330630189076E-01   -1.5386534672527491E-03
Br    3.6042097191936140E-01    2.5059082536958371E-01    1.2387990199719459E-01
Br    2.4821081561825850E-01    3.7355931846878393E-01    1.3525568871018551E-01
Cs    5.4046978828726155E-01    2.4638707231974896E-01   -1.9265645995816212E-02
Ge    6.3249463351620860E-01    3.7770075609052139E-01    1.1496547473974339E-01
Br    6.4477282574513217E-01    3.7448060663885702E-01   -4.2048664818940696E-03
Br    6.1512341901097922E-01    2.4533347586736712E-01    1.2798582053181165E-01
Br    4.9322673485022839E-01    3.7037535555008322E-01    1.1574384749031717E-01
Cs    7.6602422046204832E-01    2.7529987282644391E-01    6.6916521051917479E-03
Ge    8.8589423413909552E-01    3.7535946769716011E-01    1.3089514190753718E-01
Br    8.7540761122816713E-01    3.8879000741476882E-01   -1.4751117089211537E-02
Br    8.8423063821645675E-01    2.5221274851468078E-01    1.1721021938154447E-01
Br    7.4542543292420527E-01    3.9334714379176466E-01    1.3159345724691249E-01
Cs    8.7782016330473327E-03    5.1242673324556376E-01   -1.9909171849130113E-02
Ge    1.3046150020726105E-01    6.3365243255343273E-01    1.3087592578449342E-01
Br    1.2527208236664444E-01    6.1946452300352994E-01   -1.2483981426772801E-03
Br    1.3634320493874200E-01    5.0520986354504915E-01    1.4033036759907125E-01
Br    1.2772853346453583E-03    6.2957753259743243E-01    1.3105749087520832E-01
Cs    2.4086251852033133E-01    4.8305960406410164E-01   -1.3645365336684564E-03
Ge    3.7488133185212003E-01    6.2621523319260697E-01    1.4549930846787573E-01
Br    4.1451357383231102E-01    6.2367144857386658E-01   -8.7267119030478603E-03
Br    3.5721619505395319E-01    4.9175143323840503E-01    1.3038428000436003E-01
Br    2.4839300829820204E-01    6.2742554619405710E-01    1.1850737607583293E-01
Cs    5.0061286415255712E-01    4.8342106048579575E-01   -1.3146209697729692E-02
Ge    6.1194651960970559E-01    6.3587366386484523E-01    1.1566728858891137E-01
Br    6.0784049702101184E-01    6.1208861453264818E-01   -2.0786422874182835E-03
Br    6.1113453907048543E-01    5.0227797804402408E-01    1.1116683332772860E-01
Br    4.8949001976004952E-01    6.1346065490731194E-01    1.5042255923717965E-01
Cs    7.6554056182971841E-01    5.0701654433052878E-01    8.9152269347326681E-03
Ge    8.8059167396086346E-01    6.2298738298128664E-01    1.1321306241162916E-01
Br    8.6408177504200190E-01    6.2159871098627228E-01   -3.2799433364059010E-03
Br    8.9302301581836363E-01    5.0729109223650348E-01    1.2779180138408872E-01
Br    7.3066602454063123E-01    6.2406188851563571E-01    1.1351423405868485E-01
Cs   -6.4657150637313365E-03    7.3714989547320053E-01    1.0365972032268604E-02
Ge    1.1532313382418874E-01    8.7693323095874554E-01    1.1690322356336974E-01
Br    1.1421585901120380E-01    8.8052931542345203E-01    5.9356825859630596E-03
Br    1.1770897379747801E-01    7.4746717128685947E-01    1.0995061046338266E-01
Br   -1.7697606184234944E-02    8.8570808780564325E-01    1.4158709103613637E-01
Cs    2.4592061682601388E-01    7.5166823665680016E-01    1.3052362584284499E-02
Ge    3.7951903829731820E-01    8.6207053678697654E-01    1.2883688156412304E-01
Br    3.7809309156807530E-01    8.7862339374177090E-01    9.1664732327561907E-03
Br    3.5589993593560831E-01    7.4668897429232850E-01    1.1617416416831471E-01
Br    2.3760082923966500E-01    8.6700964669812342E-01    1.3161903723383833E-01
Cs    5.0631125650224895E-01    7.6782510203537646E-01    3.0502317591506761E-02
Ge    6.3661573853954201E-01    8.9509724110781108E-01    1.1887389490574918E-01
Br    6.3321502536702445E-01    9.0230980475543821E-01    4.8040406998810176E-03
Br    6.0745107511770635E-01    7.5083072723151567E-01    1.4999093290036325E-01
Br    4.9432721384686679E-01    8.5830598309989470E-01    1.3839871877599996E-01
Cs    7.5364641512972508E-01    7.5748465511117502E-01    9.7990740276062012E-04
Ge    8.7616477810027327E-01    8.7831989286908263E-01    1.0350342837989929E-01
Br    9.2087992616829206E-01    8.6886845767391130E-01   -3.6498040383147971E-03
Br    8.8344866965813407E-01    7.4808992037290134E-01    1.2408112864017386E-01
Br    7.4558430192670822E-01    8.5070915769123878E-01    1.3241075709350289E-01
Cs    2.6555556444833251E-02    5.9372648490876355E-03    2.4748069968223965E-01
Ge    1.3685278700192477E-01    1.3001662219175417E-01    3.9028623643228560E-01
Br    1.3479524087565736E-01    1.2681566576337849E-01    2.6487599307670756E-01
Br    1.3000513814968448E-01    1.0506106239851955E-02    3.9158799756483831E-01
Br    2.0016304784963011E-03    1.3154497770267309E-01    3.7977186265943641E-01
Cs    2.4318796693397407E-01   -1.8201134032634449E-04    2.3293491493923810E-01
Ge    3.7905027482454345E-01    1.2862772384988516E-01    3.6500885423830237E-01
Br    3.6381035761423847E-01    1.5895156686009412E-01    2.5857369160281002E-01
Br    3.8107540935751621E-01    7.3953831612845839E-03    3.6221355097315755E-01
Br    2.5393457933078961E-01    1.2868446175051618E-01    3.9219831176433412E-01
Cs    5.0711363409647936E-01   -4.5390298035141042E-03    2.6546874574039825E-01
Ge    6.2692813514417711E-01    1.2738444574245320E-01    3.6619241730311447E-01
Br    6.2534163498342221E-01    1.1811850061866055E-01    2.5674421739048747E-01
Br    6.4990255230000571E-01   -1.2987278646885845E-02    3.6584952043232488E-01
Br    4.9592931110490507E-01    1.5168713583439408E-01    3.7479609382433327E-01
Cs    7.6682741038423785E-01   -6.4294794465418327E-04    2.4526661366697472E-01
Ge    8.9033236103403834E-01    1.3909304225540231E-01    3.6705484248725678E-01
Br    8.8203771637702832E-01    1.0821241138523791E-01    2.5110143625911358E-01
Br    8.6442423281616321E-01    1.1730821098185833E-02    3.8870323579212895E-01
Br    7.4837269381458971E-01    1.2205205680734414E-01    3.7277385797686174E-01
Cs   -2.2701424722982423E-03    2.6725323793172334E-01    2.6292760839093332E-01
Ge    1.3353484365780122E-01    3.8182601153779655E-01    3.8819526338602617E-01
Br    1.3399993057708356E-01    3.5975709986572563E-01    2.7371913090287686E-01
Br    1.4003301445992616E-01    2.6558225212930825E-01    4.0206493490492701E-01
Br    5.3253396578152893E-03    3.9088859698340789E-01    3.8741085804088149E-01
Cs    2.5140876509351334E-01    2.6487454596225402E-01    2.5219877623990455E-01
Ge    3.7272712439896982E-01    3.7292998532747884E-01    3.7502757463470737E-01
Br    3.5843606270678929E-01    3.8578891787636793E-01    2.5787306279184047E-01
Br    3.6625568579316092E-01    2.5970440812293477E-01    3.7614425653627936E-01
Br    2.5435939262682294E-01    3.9035298473456004E-01    4.0197084864551652E-01
Cs    4.9124375906345447E-01    2.4787182455908027E-01    2.1505142609205913E-01
Ge    6.0723358383919135E-01    3.7555096736992966E-01    3.7704840050830418E-01
Br    6.0060289458534999E-01    3.5296492996169071E-01    2.6732490952063032E-01
Br    6.3717808782020857E-01    2.4099847539490518E-01    3.7781176113386417E-01
Br    4.9161284365773544E-01    3.7794957341931412E-01    3.8827630146539033E-01
Cs    7.3040161421154837E-01    2.6422039271686548E-01    2.4874633080962671E-01
Ge    8.5523040253500493E-01    3.8011486637048597E-01    3.8114398652335901E-01
Br    8.8316489503451512E-01    3.9137870103145539E-01    2.4026348038069170E-01
Br    8.7197912105131048E-01    2.6071671232563376E-01    3.5682139177156336E-01
Br    7.4854250733182415E-01    3.8675071080128492E-01    3.5530220458541145E-01
Cs   -6.3839729865701978E-03    5.2190453329727249E-01    2.5747904955742651E-01
Ge    1.1796878783617937E-01    6.2341085526453532E-01    3.7543525556683349E-01
Br    1.4107058143687526E-01    6.4298039315136712E-01    2.4152574060416560E-01
Br    1.3376904237749951E-01    5.0469965143755147E-01    3.5562929329430554E-01
Br    3.5638451921031285E-03    6.4396148152363208E-01    3.6142621529025015E-01
Cs    2.5673016721879605E-01    5.0832259327258644E-01    2.5872379665541617E-01
Ge    3.7257753307139840E-01    6.1727461215443957E-01    3.8069685047812490E-01
Br    3.6073010396563154E-01    6.4349288026481521E-01    2.5609639947585439E-01
Br    3.8673963939981798E-01    5.0085598187851377E-01    3.7544170086847600E-01
Br    2.5660459856170731E-01    6.3058229684705691E-01    3.8602191786144785E-01
Cs    5.0773167746726910E-01    4.8722509912732143E-01    2.4066974480142669E-01
Ge    6.1618538150764368E-01    6.3565354596630785E-01    3.6883992784038760E-01
Br    6.2220281019320789E-01    6.1581076204728113E-01    2.4307812121499869E-01
Br    6.1792479886225704E-01    4.8844823195450410E-01    3.7662355719846308E-01
Br    5.0025938168833806E-01    6.3980851286616991E-01    3.8980287563596744E-01
Cs    7.4224111220715050E-01    5.1352710311656680E-01    2.4901683440416197E-01
Ge    8.7139929890323975E-01    6.2360675751204320E-01    3.6766520553402088E-01
Br    8.6663736212222686E-01    6.2624736428871786E-01    2.4855998543967331E-01
Br    8.7066206111211886E-01    5.0680724261150500E-01    3.8079118592856370E-01
Br    7.4872598256044076E-01    6.1905537288050960E-01    3.8351192151569580E-01
Cs   -1.0268233982573465E-02    7.4182528152014182E-01    2.5067253860763516E-01
Ge    1.2060882517619449E-01    8.6995731624004791E-01    3.6797351432364767E-01
Br    1.3650219544449715E-01    8.8211563317009523E-01    2.5423035266132266E-01
Br    1.3038863515543589E-01    7.6558690720359424E-01    3.7360717562961615E-01
Br   -1.0153782621500863E-02    8.8726649212620590E-01    3.5908065359973779E-01
Cs    2.5906013574098791E-01    7.6091164939589850E-01    2.4670234701624921E-01
Ge    3.8322873688507547E-01    8.8207055757303099E-01    3.8349369577989217E-01
Br    3.7902118923158867E-01    8.8046019687252441E-01    2.5700246082282097E-01
Br    3.8260259605453523E-01    7.6679104121319419E-01    3.8869496619359917E-01
Br    2.4983458621928170E-01    8.7194115409081241E-01    3.7865894186845361E-01
Cs    5.0190457484404949E-01    7.6044438892866884E-01    2.6599197526910978E-01
Ge    6.3692046340428887E-01    8.7881805711794103E-01    3.6177405065028023E-01
Br    6.1333493222358881E-01    8.7803835987875511E-01    2.4873250983160883E-01
Br    6.1772529310036295E-01    7.5159036428947557E-01    3.7033026863149354E-01
Br    5.0835602444376837E-01    8.8024984467429701E-01    3.9533325239362993E-01
Cs    7.5855296192109101E-01    7.2906666470879400E-01    2.5534124062561175E-01
Ge    8.7501385674241872E-01    8.8395649321103409E-01    3.5838476015939080E-01
Br    8.5404004800664357E-01    8.6037074267034308E-01    2.4614389365107167E-01
Br    8.6626062118756142E-01    7.5806517858289646E-01    3.6730419680789178E-01
Br    7.5403826186689904E-01    8.7895052207217883E-01    3.7346679589564741E-01
Cs   -1.1973687311336467E-02   -1.4859652726948861E-02    4.8772983066794751E-01
Ge    1.2515198073971570E-01    1.1389198745172141E-01    6.1726304367933160E-01
Br    1.0618989624345292E-01    8.6520349550136447E-02    5.0700800426415482E-01
Br    1.4202893716854167E-01   -6.5070086380362158E-03    6.5037034702232133E-01
Br    7.5139389719807567E-03    1.2472966048314008E-01    6.2834455381013199E-01
Cs    2.4969052863515764E-01   -2.5029325063126813E-03    5.1355720298582130E-01
Ge    3.7869258366136749E-01    1.2328952229766059E-01    6.1482701990482591E-01
Br    3.9322887359055830E-01    1.2251860751114055E-01    5.0512836401246819E-01
Br    3.8127525983633004E-01    2.6504677751727056E-03    6.3413046810218932E-01
Br    2.3608585308687596E-01    1.2707023110180149E-01    6.0272190498787204E-01
Cs    5.0265661756529523E-01   -3.7952259765239855E-03    5.1637584409758353E-01
Ge    6.2491531221871521E-01    1.1135584690283697E-01    6.2466368944179340E-01
Br    6.1412253229670732E-01    1.1494180895296249E-01    5.0639232831315195E-01
Br    6.2157377992904972E-01   -4.4867159885974613E-03    6.3260435781196445E-01
Br    4.8720098898843778E-01    1.2419336410506361E-01    6.5105993822020602E-01
Cs    7.4383613321015785E-01   -8.4847229184549147E-03    4.9990867276290163E-01
Ge    8.7836705397084913E-01    1.2072831487613297E-01    6.1204815154204995E-01
Br    8.9314416900659155E-01    1.4655517227849105E-01    5.0095379609605761E-01
Br    8.7816894130777079E-01   -8.7275633918487590E-03    6.0844204975114402E-01
Br    7.4350748408909217E-01    1.1614530797352617E-01    6.1437026090594860E-01
Cs   -1.2133293537285589E-02    2.8138522773909874E-01    5.0351765944457105E-01
Ge    1.2147585543712738E-01    3.7131590730191888E-01    6.2943299710709277E-01
Br    1.1917895401040811E-01    4.0531845064247646E-01    5.1754481801067720E-01
Br    1.1971404230492118E-01    2.5033637834121059E-01    6.1902979404058078E-01
Br   -6.6701761931535807E-03    3.5975010673753666E-01    6.3981823302687102E-01
Cs    2.5504573309207490E-01    2.5537161277020737E-01    5.0166619651473798E-01
Ge    3.7624320068065537E-01    3.6506366697477971E-01    6.1909493378070857E-01
Br    3.7002716809889930E-01    3.6684198940571705E-01    5.0447418833878122E-01
Br    3.7158195771058500E-01    2.5662134404200598E-01    6.3069299122127609E-01
Br    2.5895802987710920E-01    3.7085205753337286E-01    6.3060527997299520E-01
Cs    4.9640389917504502E-01    2.3462148265287924E-01    5.1428220695496774E-01
Ge    6.2941899393495182E-01    3.6359525868738557E-01    6.2962818138366239E-01
Br    6.0072554417186341E-01    3.8720981529361159E-01    5.1518843655653890E-01
Br    6.2511007649609784E-01    2.4710841642399051E-01    6.2319163716548698E-01
Br    5.0603589573448204E-01    3.5229902571601945E-01    6.4386559329446247E-01
Cs    7.3805957596968963E-01    2.1842826243882976E-01    4.9941209461565450E-01
Ge    8.6897573038383091E-01    3.7232164230171033E-01    6.2355478334781189E-01
Br    8.5838979187526032E-01    3.6648805011085633E-01    4.8885536026349113E-01
Br    8.6470221886765342E-01    2.3433058373895299E-01    6.3921414472047666E-01
Br    7.4084006722250173E-01    3.6415282857074222E-01    6.2008709115232064E-01
Cs    3.3895326556219016E-03    5.0704511806449271E-01    5.1607173230071435E-01
Ge    1.2207669627313336E-01    6.1232676596854108E-01    6.3025581620135507E-01
Br    1.0154728773303121E-01    6.2321257343594594E-01    4.9582118757548421E-01
Br    1.1914692716431238E-01    5.0163234765174414E-01    6.6043892690649164E-01
Br   -6.8261262319438141E-03    6.2789035548953764E-01    6.1904552264928825E-01
Cs    2.5685212201584706E-01    5.1590950583910644E-01    4.9892175620804641E-01
Ge    3.8115576483281127E-01    6.1422720341382309E-01    6.1619518172995635E-01
Br    3.7781617468213946E-01    6.2080642342712333E-01    4.9598860807590678E-01
Br    3.8527611627830977E-01    5.0349572054870662E-01    6.3270508661415070E-01
Br    2.4124963117522902E-01    6.4957006701185871E-01    6.1029375048908541E-01
Cs    4.8198010937962421E-01    5.0464358774209905E-01    4.9697229026112461E-01
Ge    6.3103569215643651E-01    6.1137724498287149E-01    6.1118888477954825E-01
Br    6.1705653396614191E-01    6.3307673245076934E-01    5.0082088884962872E-01
Br    6.3809709807694814E-01    4.9307843059550682E-01    6.1495865252279414E-01
Br    4.9641823406937974E-01    6.1508209674910541E-01    6.3945015583931808E-01
Cs    7.4880576232053775E-01    4.9864026149831564E-01    4.9922092875979235E-01
Ge    8.7791557790836527E-01    6.2462153230589623E-01    6.0959743096697783E-01
Br    8.9603400016416190E-01    6.4053885803160082E-01    4.9378539959808260E-01
Br    8.6974245755807489E-01    4.9788695925009063E-01    5.9747773539002869E-01
Br    7.5104392080175375E-01    6.1910506978786850E-01    6.1552825466843797E-01
Cs   -7.6463731929302765E-03    7.6755490668620707E-01    4.9015989822397038E-01
Ge    1.1588689774048132E-01    8.7292419633620899E-01    6.2287536415353884E-01
Br    1.2600347077475954E-01    8.8161741829490037E-01    4.9893135972446639E-01
Br    9.8608054607187495E-02    7.4997832988636781E-01    6.2667848877161514E-01
Br    8.5602599652223298E-03    8.9204330081322036E-01    6.5386086800767507E-01
Cs    2.5629298294546077E-01    7.6072559020457808E-01    4.8472181826404009E-01
Ge    3.6794930464057568E-01    8.5193233829209714E-01    6.1513818819156296E-01
Br    3.8797649620619806E-01    8.7703685525715569E-01    5.0440850227156497E-01
Br    4.0331643098715420E-01    7.4280040676044734E-01    6.1690644529261895E-01
Br    2.5868074923143108E-01    8.5935321106289342E-01    5.9595799484788425E-01
Cs    5.0711387953910170E-01    7.4582843673252575E-01    4.9258649863240095E-01
Ge    6.1524052495226822E-01    8.6999911562999965E-01    6.1186550987566135E-01
Br    6.3292545690010604E-01    8.7179409942752861E-01    4.9311290822748322E-01
Br    6.1757153030632805E-01    7.5114365026626762E-01    6.0546889017695238E-01
Br    5.0260224228923223E-01    8.7743243894614797E-01    6.2883788368225402E-01
Cs    7.5223627320242625E-01    7.5310398429587611E-01    5.0704064866057930E-01
Ge    8.6297341545003003E-01    8.8324736610242705E-01    6.1089522648090455E-01
Br    8.6571735629259594E-01    8.6750898636091711E-01    5.0299346585948068E-01
Br    8.7290719405249906E-01    7.4971691427067610E-01    6.2381645051261903E-01
Br    7.4816271127765555E-01    8.8415877964067602E-01    6.1130346457868057E-01
Cs   -5.2377493897345891E-03    1.5763536600446354E-03    7.4571052605888377E-01
Ge    1.3278676750797222E-01    1.1578809401704700E-01    8.7846317479421010E-01
Br    1.3778304547267081E-01    1.2979918745485394E-01    7.6052816856281613E-01
Br    1.5021850188258198E-01   -2.9585892557823460E-03    8.5289187910672470E-01
Br   -1.0632269808088506E-03    1.2883356463869991E-01    8.7734826558832546E-01
Cs    2.6577221306307031E-01    7.5497100666332036E-03    7.4444986549363068E-01
Ge    3.7397335940048515E-01    1.3721258358358043E-01    8.7982812835965396E-01
Br    3.8297576387488685E-01    1.3534169540369895E-01    7.6041091655199933E-01
Br    3.6176869854554422E-01   -2.4317814064055407E-02    8.7986041997432374E-01
Br    2.5722848328794407E-01    1.2026572513451837E-01    8.6906336979012677E-01
Cs    4.9232705932846332E-01    9.1577800772146851E-03    7.6011651919910017E-01
Ge    6.1912105252197558E-01    1.1202013999014590E-01    8.6361290500645393E-01
Br    6.0756805248630696E-01    1.1791366979844539E-01    7.5351573184576426E-01
Br    6.2332619843856907E-01    1.5396548873622691E-03    8.6549170060258973E-01
Br    5.0525248226416641E-01    1.2664357558249653E-01    9.0280896543819056E-01
Cs    7.4526539381144719E-01   -2.8695463177740882E-02    7.4983062029563807E-01
Ge    8.7242331221708003E-01    1.2526092407484182E-01    8.6094300848863459E-01
Br    8.7220624528378543E-01    1.0841541068195683E-01    7.5117413929722665E-01
Br    8.8967147882053088E-01   -7.7212417790535936E-03    8.7071023762570754E-01
Br    7.4092494784592899E-01    1.2301145222593590E-01    8.6008706410556579E-01
Cs    1.1785269027832168E-02    2.3216733194649258E-01    7.4972566812347852E-01
Ge    1.2688055286918068E-01    3.8009277930673729E-01    8.8368262253445573E-01
Br    1.4155168771081758E-01    3.3912784920875150E-01    7.5997932542650959E-01
Br    1.3244474847029250E-01    2.3475070025167907E-01    8.7529196189566749E-01
Br    1.0865228287705263E-02    3.9695260640551205E-01    8.7637337880814170E-01
Cs    2.4740838705800769E-01    2.3483386703488762E-01    7.4762439909303557E-01
Ge    3.6715406336521933E-01    3.8744010766795911E-01    8.6584692574693334E-01
Br    3.8063895268051051E-01    3.5558375463942310E-01    7.4858709959828140E-01
Br    3.8116772529085263E-01    2.4340462596853465E-01    9.1282198496712053E-01
Br    2.5277750262200954E-01    3.6625089820357720E-01    8.8333565470030628E-01
Cs    4.9788617317043204E-01    2.4172069952812744E-01    7.5764180571236051E-01
Ge    6.2673008915637607E-01    3.7076643596309017E-01    8.5785208969069560E-01
Br    6.3306397564220429E-01    3.6621661340585848E-01    7.4483593211204180E-01
Br    6.3920600157321805E-01    2.5906043518629551E-01    8.5681624628103259E-01
Br    5.0642937183047187E-01    3.6849324672379474E-01    8.6159047750700457E-01
Cs    7.5081859892962799E-01    2.5334586615272742E-01    7.4841651438414358E-01
Ge    8.7182424489901944E-01    3.8129338691830733E-01    8.6579848114903901E-01
Br    8.6554640680637684E-01    3.8888174102334971E-01    7.3481035585680687E-01
Br    8.6152320758503731E-01    2.5372232782524468E-01    8.6144508301076139E-01
Br    7.6282437441702500E-01    3.9266881639759732E-01    8.8516184480656757E-01
Cs    5.1731069291186885E-03    5.0219925435926427E-01    7.7497217889557390E-01
Ge    1.3909088132498712E-01    6.3386884335038507E-01    8.7449821274066042E-01
Br    1.0062315872530482E-01    6.2963089388335958E-01    7.5040648553576372E-01
Br    1.4054419796674006E-01    5.0279942558422508E-01    8.8261250496565313E-01
Br   -9.4533437489121869E-03    6.2183318558431766E-01    8.7333305988910637E-01
Cs    2.5068549846473742E-01    4.6885955116624994E-01    7.5542438792519040E-01
Ge    3.9975497495569795E-01    6.3107350445399568E-01    8.8271733593826252E-01
Br    3.5954291984279207E-01    6.3321150261769577E-01    7.3913492075755183E-01
Br    3.8687987237026555E-01    4.8971168993223219E-01    8.4593714253578567E-01
Br    2.4460902375856247E-01    6.2699669408228154E-01    8.5684486373495161E-01
Cs    5.0506891657965558E-01    4.6473969886171268E-01    7.3133992173860074E-01
Ge    6.2934625831114255E-01    6.1640189183699412E-01    8.5695524772695097E-01
Br    6.2356787125678481E-01    6.4481533270485436E-01    7.4588623566879320E-01
Br    6.2244987101204619E-01    4.9272488242356172E-01    8.4511956256901288E-01
Br    5.0186121199311895E-01    5.9515263840643684E-01    8.6482773788604139E-01
Cs    7.3695196576484512E-01    5.1499664358935604E-01    7.3975920697170483E-01
Ge    8.7551292079822096E-01    6.2612228999005726E-01    8.6019534294396649E-01
Br    8.6314042022742765E-01    6.4934268790123761E-01    7.3552633008444379E-01
Br    8.7101499987980613E-01    5.0134965499986373E-01    8.6434000970183300E-01
Br    7.4155791553038186E-01    6.1561578387599258E-01    8.6905404159347677E-01
Cs   -1.2035528500939474E-02    7.4055564661373841E-01    7.5390134035860168E-01
Ge    1.5054118422408577E-01    8.6593944194562700E-01    8.6172043609604554E-01
Br    1.4661635392253186E-01    8.3920219508084326E-01    7.5211440153971409E-01
Br    1.1747143433517140E-01    7.5378133165363548E-01    8.8581181958464938E-01
Br   -3.4828052346801259E-03    8.5428838636238025E-01    8.5189603004351278E-01