 # Version information for this restart file 
 # current date 2021-09-13 19:34:29.617
 # current working dir /projectsp/f_rcr78_1/MW/Hybrid_Perovskite/CsGeBr3/4x4/550K/WC
 # Program compiled at                              Fri Sep 13 14:50:45 EDT 2019
 # Program compiled on                             slepner083.amarel.rutgers.edu
 # Program compiled for                                                    local
 # Source code revision number                                       git:e35496b
 &GLOBAL
   PRINT_LEVEL  LOW
   PROJECT_NAME CGB_WC
   RUN_TYPE  MD
   WALLTIME 47:58:00
 &END GLOBAL
 &MOTION
   &MD
     ENSEMBLE  NVT
     STEPS  5000
     TIMESTEP     9.9999999999999989E-01
     STEP_START_VAL  10189
     TIME_START_VAL     1.0188999999998885E+04
     ECONS_START_VAL    -4.1284717054172052E+03
     TEMPERATURE     5.5000000000000000E+02
     COMVEL_TOL     1.0000000000000000E-08
     &THERMOSTAT
       TYPE  CSVR
       &CSVR
         TIMECON     9.9999999999999986E+01
         &THERMOSTAT_ENERGY
              -7.3170878860614819E-01
         &END THERMOSTAT_ENERGY
         &RNG_INIT
Wiener process for Thermostat # 1        1 F T F   7.5165053374743396E-01        1280641680.0        3751882973.0        4181093710.0        1621465009.0         367365475.0        2661509188.0             12345.0             12345.0             12345.0             12345.0             12345.0             12345.0             12345.0             12345.0             12345.0             12345.0             12345.0             12345.0
         &END RNG_INIT
       &END CSVR
     &END THERMOSTAT
     &AVERAGES  T
       &RESTART_AVERAGES
         ITIMES_START  1
         AVECPU     1.4898205722747733E+02
         AVEHUGONIOT     0.0000000000000000E+00
         AVETEMP_BARO     0.0000000000000000E+00
         AVEPOT    -4.1285259786137012E+03
         AVEKIN     8.3334635855247874E-01
         AVETEMP     5.4994702811516652E+02
         AVEKIN_QM     0.0000000000000000E+00
         AVETEMP_QM     0.0000000000000000E+00
         AVEVOL     7.6368394055423283E+04
         AVECELL_A     4.2426566442310715E+01
         AVECELL_B     4.2426566442310715E+01
         AVECELL_C     4.2426566442310715E+01
         AVEALPHA     9.0000000000000000E+01
         AVEBETA     9.0000000000000000E+01
         AVEGAMMA     9.0000000000000000E+01
         AVE_ECONS    -1.0422436789217016E+00
         AVE_PRESS     0.0000000000000000E+00
         AVE_PXX     0.0000000000000000E+00
       &END RESTART_AVERAGES
     &END AVERAGES
   &END MD
   &PRINT
     &TRAJECTORY  SILENT
       &EACH
         MD  1
       &END EACH
     &END TRAJECTORY
     &VELOCITIES  SILENT
       &EACH
         MD  1
       &END EACH
     &END VELOCITIES
     &FORCES  SILENT
       &EACH
         MD  1
       &END EACH
     &END FORCES
     &STRESS  SILENT
       &EACH
         MD  1
       &END EACH
     &END STRESS
     &RESTART  SILENT
       BACKUP_COPIES  3
       &EACH
         MD  1
       &END EACH
     &END RESTART
     &RESTART_HISTORY  SILENT
       &EACH
         MD  5
       &END EACH
     &END RESTART_HISTORY
   &END PRINT
 &END MOTION
 &FORCE_EVAL
   METHOD  QS
   &DFT
     BASIS_SET_FILE_NAME BASIS_MOLOPT
     POTENTIAL_FILE_NAME GTH_POTENTIALS
     MULTIPLICITY  1
     CHARGE  0
     &SCF
       MAX_SCF  30
       EPS_SCF     1.0000000000000001E-05
       SCF_GUESS  ATOMIC
       &OT  T
         MINIMIZER  DIIS
         PRECONDITIONER  FULL_SINGLE_INVERSE
       &END OT
       &OUTER_SCF  T
         EPS_SCF     1.0000000000000001E-05
         MAX_SCF  10
       &END OUTER_SCF
       &PRINT
         &RESTART  OFF
         &END RESTART
       &END PRINT
     &END SCF
     &QS
       EPS_DEFAULT     1.0000000000000000E-10
       EXTRAPOLATION  ASPC
       METHOD  GPW
     &END QS
     &MGRID
       NGRIDS  4
       CUTOFF     6.0000000000000000E+02
       REL_CUTOFF     8.0000000000000000E+01
     &END MGRID
     &XC
       DENSITY_CUTOFF     1.0000000000000000E-10
       GRADIENT_CUTOFF     1.0000000000000000E-10
       TAU_CUTOFF     1.0000000000000000E-10
       &XC_FUNCTIONAL  NO_SHORTCUT
         &PBE  T
         &END PBE
       &END XC_FUNCTIONAL
     &END XC
     &POISSON
       PERIODIC  XYZ
     &END POISSON
     &LOCALIZE  T
       USE_HISTORY  T
       EPS_LOCALIZATION     1.0000000000000001E-05
       METHOD  JACOBI
       &PRINT
         &WANNIER_CENTERS  SILENT
           IONS+CENTERS  T
         &END WANNIER_CENTERS
         &WANNIER_SPREADS  SILENT
         &END WANNIER_SPREADS
       &END PRINT
     &END LOCALIZE
     &REAL_TIME_PROPAGATION
       INITIAL_WFN  SCF_WFN
     &END REAL_TIME_PROPAGATION
     &PRINT
       &MO_CUBES  SILENT
         WRITE_CUBE  F
         NLUMO  4
         NHOMO  4
         &EACH
           MD  10
         &END EACH
       &END MO_CUBES
       &E_DENSITY_CUBE  OFF
       &END E_DENSITY_CUBE
     &END PRINT
   &END DFT
   &SUBSYS
     &CELL
       A     2.2451172000000000E+01    0.0000000000000000E+00    0.0000000000000000E+00
       B     0.0000000000000000E+00    2.2451172000000000E+01    0.0000000000000000E+00
       C     0.0000000000000000E+00    0.0000000000000000E+00    2.2451172000000000E+01
       MULTIPLE_UNIT_CELL  1 1 1
     &END CELL
     &COORD
Cs   -2.4980943759425130E-03    1.0067653644771682E-02   -1.8893974819521455E-02
Ge    1.1269468640944955E-01    1.4621087023920354E-01    1.3130514852837971E-01
Br    1.1426198805972358E-01    1.3973999728897193E-01    1.2565533581859738E-02
Br    1.1172911608134055E-01    2.4433825627295839E-03    1.1934917365624689E-01
Br   -9.2877499897552618E-03    1.1287048708260829E-01    1.1473246770932886E-01
Cs    2.4220917182508117E-01   -1.0595530879938930E-03    2.0098326116254868E-03
Ge    3.6610167162009066E-01    1.2032979511782231E-01    1.2582044794463990E-01
Br    3.4938783826183356E-01    1.0188943191626156E-01    1.2130077363126830E-02
Br    3.7944510987014485E-01    4.0249741898377737E-03    1.2726464625009010E-01
Br    2.5087560419932980E-01    1.2779503437218820E-01    1.3630283039778121E-01
Cs    4.9478979694601172E-01    4.9821274660045945E-03    1.4829062467498301E-02
Ge    6.2016755180439309E-01    1.2716837159800529E-01    1.1869400982030712E-01
Br    6.4383769543901725E-01    1.1466287009020543E-01   -8.4111341986932409E-04
Br    6.3107319899185432E-01    6.4078903694499926E-03    1.3996359264820749E-01
Br    5.0127273706336739E-01    1.3809901805143396E-01    1.0286012395404556E-01
Cs    7.5350098366428686E-01   -1.1051361401530815E-02   -5.3376795135942311E-03
Ge    8.6210807521565069E-01    1.2878859260781880E-01    1.0742373580216825E-01
Br    8.4264862127067242E-01    1.1031810195767505E-01   -6.4329856416046197E-03
Br    8.8382408817880354E-01   -2.6537081771397832E-03    1.1344054688073132E-01
Br    7.5281298536778696E-01    1.4907792257729749E-01    1.3835083495077574E-01
Cs   -1.0557318433336350E-03    2.5593125640858461E-01    4.0004493393374623E-03
Ge    1.2929350224660388E-01    3.8186967452662157E-01    1.3824800554922309E-01
Br    1.1613944101502408E-01    3.9449034737102967E-01    1.0671831788668528E-02
Br    1.3143953409039219E-01    2.5842002844389406E-01    1.2387666219796004E-01
Br    9.2564769100839496E-04    3.7192466621906478E-01    1.2644457849639160E-01
Cs    2.5633457611281019E-01    2.6014350137763359E-01    1.1940516375543392E-02
Ge    3.7650870672805492E-01    3.7330837970135583E-01    1.1716742199622361E-01
Br    3.7859191491448246E-01    3.9864087780217056E-01   -1.6127144128872109E-03
Br    3.6037885029111455E-01    2.5054316990132086E-01    1.2403327569087866E-01
Br    2.4819644609123753E-01    3.7348085203520293E-01    1.3528057909268584E-01
Cs    5.4022397636195196E-01    2.4631790556123143E-01   -1.9165307964514895E-02
Ge    6.3251625519695376E-01    3.7790690932694332E-01    1.1506678193108560E-01
Br    6.4471625076216132E-01    3.7443858145677672E-01   -4.1344724269075763E-03
Br    6.1505628083076547E-01    2.4522501120478801E-01    1.2801291367809142E-01
Br    4.9326669042897270E-01    3.7029623513337301E-01    1.1573550853472342E-01
Cs    7.6613253717628338E-01    2.7522037105571268E-01    6.6482116679557456E-03
Ge    8.8588977332429841E-01    3.7543514728105343E-01    1.3097477854999520E-01
Br    8.7526961915097701E-01    3.8883093755477632E-01   -1.4799501922398295E-02
Br    8.8429743143639461E-01    2.5210141242628703E-01    1.1710629831636778E-01
Br    7.4545308728203208E-01    3.9341862868036498E-01    1.3155487967029239E-01
Cs    8.8877805357661811E-03    5.1246131203665801E-01   -1.9894630377933181E-02
Ge    1.3037298487788082E-01    6.3358829299831010E-01    1.3102478603715129E-01
Br    1.2534365048261600E-01    6.1945048441042760E-01   -1.2892147196099479E-03
Br    1.3626619680421673E-01    5.0507643987954964E-01    1.4016769725204067E-01
Br    1.2290082249593489E-03    6.2963284150530896E-01    1.3105712871933398E-01
Cs    2.4087454886756240E-01    4.8300843565796336E-01   -1.3847150791090844E-03
Ge    3.7476833377117774E-01    6.2621336930248428E-01    1.4577685706040733E-01
Br    4.1452929067070854E-01    6.2361653373771564E-01   -8.8385116927332009E-03
Br    3.5726160078529601E-01    4.9174562496352481E-01    1.3018429136501811E-01
Br    2.4860155750399585E-01    6.2750325917535021E-01    1.1860053219392246E-01
Cs    5.0055882977067467E-01    4.8346409875125845E-01   -1.3230374423871219E-02
Ge    6.1181385809769862E-01    6.3610112757699400E-01    1.1565247464454566E-01
Br    6.0767419034804304E-01    6.1236189875760461E-01   -2.1530630840256131E-03
Br    6.1110436902383480E-01    5.0233247426016725E-01    1.1119594028021298E-01
Br    4.8934813422808099E-01    6.1329093201334617E-01    1.5052642649104014E-01
Cs    7.6559880222632815E-01    5.0709322894228515E-01    8.9618428768701713E-03
Ge    8.8058539999709629E-01    6.2300485896756252E-01    1.1319610228283918E-01
Br    8.6408067937322486E-01    6.2154440664972510E-01   -3.1200645856546390E-03
Br    8.9288422954548896E-01    5.0723599904311301E-01    1.2765251573159567E-01
Br    7.3069687398846228E-01    6.2413802587665168E-01    1.1343273282069900E-01
Cs   -6.5125755304754141E-03    7.3712158000595118E-01    1.0339956242279215E-02
Ge    1.1542026169791278E-01    8.7688791738776350E-01    1.1688261427597631E-01
Br    1.1430643143464883E-01    8.8032774130528302E-01    5.9543708206515862E-03
Br    1.1757881616829213E-01    7.4750614257630021E-01    1.0975558593210305E-01
Br   -1.7815232577615775E-02    8.8575219104852609E-01    1.4161489426486526E-01
Cs    2.4593014717191630E-01    7.5171752693919114E-01    1.3008073722133900E-02
Ge    3.7958940158552829E-01    8.6206339964626622E-01    1.2880435440584087E-01
Br    3.7814784619740677E-01    8.7842780068404147E-01    9.1454867034740182E-03
Br    3.5602638563755562E-01    7.4667865365647557E-01    1.1620561424414919E-01
Br    2.3764376316510008E-01    8.6707711114131270E-01    1.3159795110281242E-01
Cs    5.0633487804422195E-01    7.6779410694150108E-01    3.0494317221620822E-02
Ge    6.3661206015454075E-01    8.9519212722650776E-01    1.1861355823111595E-01
Br    6.3313703515861497E-01    9.0219557611156298E-01    4.9156010732412337E-03
Br    6.0733597213903401E-01    7.5088211191983589E-01    1.5014971272864761E-01
Br    4.9416035197394925E-01    8.5836733037631663E-01    1.3860921091344075E-01
Cs    7.5358017253513976E-01    7.5754167167470376E-01    1.0905092468812983E-03
Ge    8.7612698014431256E-01    8.7827499867949821E-01    1.0348025834581578E-01
Br    9.2101181827503975E-01    8.6892106225747734E-01   -3.5581608629891353E-03
Br    8.8344665694935032E-01    7.4813047492405549E-01    1.2402384401352874E-01
Br    7.4551475375632292E-01    8.5060305155261817E-01    1.3231070369451403E-01
Cs    2.6506158154304175E-02    5.9261168857632678E-03    2.4756852196044979E-01
Ge    1.3698294569672820E-01    1.2990682498003539E-01    3.9028558072699837E-01
Br    1.3479236613960613E-01    1.2677210829593519E-01    2.6487550639672253E-01
Br    1.2991495721007509E-01    1.0609052431790998E-02    3.9158560364679545E-01
Br    1.9589179171573914E-03    1.3163895673521631E-01    3.7968809376129919E-01
Cs    2.4313046481619879E-01   -9.9145816398852520E-05    2.3277614079220152E-01
Ge    3.7907345081096211E-01    1.2866824095400359E-01    3.6513542107643765E-01
Br    3.6383456721379065E-01    1.5893327343221253E-01    2.5851600075141579E-01
Br    3.8099419832088621E-01    7.3763428502296750E-03    3.6217048338755270E-01
Br    2.5380093157603567E-01    1.2876655487731281E-01    3.9220013042858776E-01
Cs    5.0729155873326670E-01   -4.4433673019383564E-03    2.6550547065778290E-01
Ge    6.2677515599517408E-01    1.2739253819655927E-01    3.6629816757259870E-01
Br    6.2543831544599671E-01    1.1823869456311414E-01    2.5668123330164833E-01
Br    6.5001452303247775E-01   -1.3008893548536970E-02    3.6594323690039909E-01
Br    4.9583710550077459E-01    1.5161657854864305E-01    3.7472681490345827E-01
Cs    7.6685729045786188E-01   -6.4920209243452388E-04    2.4528755896937079E-01
Ge    8.9032623072088424E-01    1.3898661927893180E-01    3.6732783228272442E-01
Br    8.8201980168257099E-01    1.0836738452289964E-01    2.5119841916923225E-01
Br    8.6441790301454913E-01    1.1851081079589385E-02    3.8878050093285410E-01
Br    7.4823126394399875E-01    1.2210150823639274E-01    3.7296559638799021E-01
Cs   -2.3344247204670448E-03    2.6719836979504502E-01    2.6290221289363508E-01
Ge    1.3346340131985138E-01    3.8170587600806705E-01    3.8803101601723627E-01
Br    1.3403893132103031E-01    3.5975080879106902E-01    2.7380555549359842E-01
Br    1.4002937509094257E-01    2.6545343815458960E-01    4.0224430078112278E-01
Br    5.4765542288050086E-03    3.9084241056873698E-01    3.8744165374221107E-01
Cs    2.5150725945639058E-01    2.6485664016186145E-01    2.5216218501542298E-01
Ge    3.7263738637052629E-01    3.7284810122541201E-01    3.7509833489941713E-01
Br    3.5850980834417495E-01    3.8579383215112339E-01    2.5775045697693222E-01
Br    3.6637271820214651E-01    2.5969406323150013E-01    3.7615132184548355E-01
Br    2.5433584984707880E-01    3.9041308106723521E-01    4.0194755192598158E-01
Cs    4.9118489688613648E-01    2.4787447045264130E-01    2.1499678404972933E-01
Ge    6.0720318485216318E-01    3.7533729606064126E-01    3.7689709117369230E-01
Br    6.0062763017253940E-01    3.5290214473793247E-01    2.6732140547677136E-01
Br    6.3713614719369449E-01    2.4111017329033158E-01    3.7774012530774320E-01
Br    4.9154520068878849E-01    3.7789464592044192E-01    3.8830375235892828E-01
Cs    7.3050185115989463E-01    2.6427084699075309E-01    2.4869719995762510E-01
Ge    8.5537235384549504E-01    3.8005237253604340E-01    3.8123066295846508E-01
Br    8.8319845672068231E-01    3.9147855469784471E-01    2.4033794360773234E-01
Br    8.7199425765333327E-01    2.6096856011041097E-01    3.5710240065448451E-01
Br    7.4840072358110377E-01    3.8672969705469601E-01    3.5528053433371964E-01
Cs   -6.3212364715720384E-03    5.2197208915587345E-01    2.5744612903449132E-01
Ge    1.1784721904216781E-01    6.2353159067377761E-01    3.7535909847334126E-01
Br    1.4100082090626287E-01    6.4288601817014623E-01    2.4141384920768316E-01
Br    1.3379361307245838E-01    5.0479435615504009E-01    3.5577106978828532E-01
Br    3.5759990522008212E-03    6.4378936163006284E-01    3.6156854338266159E-01
Cs    2.5680115572697948E-01    5.0846782269291235E-01    2.5874758064972309E-01
Ge    3.7242003059780288E-01    6.1730806185394826E-01    3.8069882913434638E-01
Br    3.6069585797431192E-01    6.4350671300338624E-01    2.5599272985835375E-01
Br    3.8699468051752967E-01    5.0084926132614405E-01    3.7534834516793569E-01
Br    2.5647999800354732E-01    6.3076301069963736E-01    3.8600040019007897E-01
Cs    5.0777519465508281E-01    4.8716855088957284E-01    2.4067027719403081E-01
Ge    6.1626685446103446E-01    6.3562283139819198E-01    3.6872831680289997E-01
Br    6.2219471058413323E-01    6.1587948237660084E-01    2.4289921690196462E-01
Br    6.1787558207415338E-01    4.8836894333397074E-01    3.7656433049783644E-01
Br    5.0036384660572253E-01    6.3985917157219063E-01    3.8986301907139598E-01
Cs    7.4223451574515342E-01    5.1353171686418486E-01    2.4910617934602144E-01
Ge    8.7160797522580291E-01    6.2352382796400219E-01    3.6769050407732823E-01
Br    8.6647801705679495E-01    6.2613089237586383E-01    2.4874859615387335E-01
Br    8.7071765402178058E-01    5.0688870432726030E-01    3.8081736033264718E-01
Br    7.4854207834697828E-01    6.1903003955808589E-01    3.8348758828438967E-01
Cs   -1.0326309768976440E-02    7.4182415484451913E-01    2.5058661191046350E-01
Ge    1.2069648138195989E-01    8.6984822138685569E-01    3.6816601925815268E-01
Br    1.3650904468369071E-01    8.8219366248762521E-01    2.5425021486443383E-01
Br    1.3037968787372192E-01    7.6566311475906645E-01    3.7369453093178640E-01
Br   -1.0131951372651618E-02    8.8735334052192139E-01    3.5914598576649448E-01
Cs    2.5914073096901358E-01    7.6091938285253946E-01    2.4672508098264379E-01
Ge    3.8303747797743615E-01    8.8220807874382257E-01    3.8344689422096739E-01
Br    3.7905967641732990E-01    8.8041403515551231E-01    2.5684418389798347E-01
Br    3.8264219125981430E-01    7.6686971148999306E-01    3.8852426080018337E-01
Br    2.4962691526294919E-01    8.7178342132485498E-01    3.7841238346566825E-01
Cs    5.0200903754226567E-01    7.6055133440798417E-01    2.6605445424741059E-01
Ge    6.3684150238629533E-01    8.7906203894231683E-01    3.6164946158314404E-01
Br    6.1327687951810506E-01    8.7824804662143596E-01    2.4862498719253942E-01
Br    6.1765180192871938E-01    7.5163228186286413E-01    3.7021450050638266E-01
Br    5.0851833583650885E-01    8.8026969308509084E-01    3.9537813745259814E-01
Cs    7.5872334601501989E-01    7.2907876371232749E-01    2.5523851731557962E-01
Ge    8.7502636765220398E-01    8.8401474536234748E-01    3.5838466178548289E-01
Br    8.5397526993336881E-01    8.6045324235910381E-01    2.4597004931052019E-01
Br    8.6629981743759099E-01    7.5810318784700148E-01    3.6734280158617366E-01
Br    7.5404587388347866E-01    8.7905447520178326E-01    3.7346526898857868E-01
Cs   -1.2068804520044000E-02   -1.4937470835961612E-02    4.8765130290905551E-01
Ge    1.2496654118768348E-01    1.1364057914461338E-01    6.1699080988053279E-01
Br    1.0615792382392539E-01    8.6579494528554748E-02    5.0704620110229026E-01
Br    1.4220608349013558E-01   -6.2513464192342208E-03    6.5046045685208642E-01
Br    7.1954012824537962E-03    1.2470808108054919E-01    6.2807339153719077E-01
Cs    2.4970941893732881E-01   -2.4852224133887855E-03    5.1356990174204775E-01
Ge    3.7855303749209779E-01    1.2331254978395467E-01    6.1489571387832986E-01
Br    3.9319961594843039E-01    1.2256191285859236E-01    5.0512672781821000E-01
Br    3.8124980251613233E-01    2.7952195330459757E-03    6.3416163905628598E-01
Br    2.3594827890142714E-01    1.2687770201112999E-01    6.0267932667071877E-01
Cs    5.0274280037181451E-01   -3.8364340270940576E-03    5.1641488048876205E-01
Ge    6.2502939456962325E-01    1.1122350674784486E-01    6.2455239926129269E-01
Br    6.1386929613588881E-01    1.1495471312343170E-01    5.0656863502731819E-01
Br    6.2148509934602703E-01   -4.3694552758252389E-03    6.3265976730761420E-01
Br    4.8726060324583043E-01    1.2427013662493949E-01    6.5098937835926007E-01
Cs    7.4388111466177831E-01   -8.3287915526007519E-03    4.9987173173026955E-01
Ge    8.7831500181937616E-01    1.2073261996787055E-01    6.1225340421217156E-01
Br    8.9325681060386264E-01    1.4663307310602613E-01    5.0102562323898547E-01
Br    8.7831362475809505E-01   -8.7767425565954543E-03    6.0858633079375091E-01
Br    7.4359335542027671E-01    1.1601163715866458E-01    6.1452685683648312E-01
Cs   -1.2135137900360008E-02    2.8141076715441538E-01    5.0341641309292018E-01
Ge    1.2152000858363531E-01    3.7142048132505773E-01    6.2956597503756895E-01
Br    1.1916517963861999E-01    4.0523389459051451E-01    5.1756882293001960E-01
Br    1.1969847284860147E-01    2.5040632552017078E-01    6.1897394560046204E-01
Br   -6.8159915952546394E-03    3.5973470342198005E-01    6.3991451001156596E-01
Cs    2.5512129982635007E-01    2.5544167547195729E-01    5.0162974195189203E-01
Ge    3.7633301992157442E-01    3.6499136511254182E-01    6.1912795271944154E-01
Br    3.6995570385602305E-01    3.6676370342946824E-01    5.0451049090622402E-01
Br    3.7177556897162811E-01    2.5653950097276434E-01    6.3065980689885470E-01
Br    2.5895487916830673E-01    3.7081779182384705E-01    6.3081351951735609E-01
Cs    4.9634426154940664E-01    2.3446999589644543E-01    5.1427352691776773E-01
Ge    6.2936121980715953E-01    3.6358470556561323E-01    6.2964055723903622E-01
Br    6.0077629578623648E-01    3.8720188981974102E-01    5.1531138623457617E-01
Br    6.2517724653641460E-01    2.4721881434409854E-01    6.2328372707153845E-01
Br    5.0610254498418406E-01    3.5215436152315704E-01    6.4380788598058736E-01
Cs    7.3807696533465428E-01    2.1847919112372474E-01    4.9959058408601165E-01
Ge    8.6882462516725867E-01    3.7233817594267959E-01    6.2351254730146666E-01
Br    8.5846203983793390E-01    3.6648448737538636E-01    4.8900803091560913E-01
Br    8.6480094016511577E-01    2.3422735731077227E-01    6.3911949860706552E-01
Br    7.4080415533251553E-01    3.6427074510210022E-01    6.2017857418364286E-01
Cs    3.4160430046136056E-03    5.0695291011723809E-01    5.1604339155044299E-01
Ge    1.2201123361697219E-01    6.1232820969063706E-01    6.3019744217175566E-01
Br    1.0156901719346377E-01    6.2323929699410630E-01    4.9592699134026030E-01
Br    1.1925718141203334E-01    5.0152366987375274E-01    6.6052416638463252E-01
Br   -6.8256576467904803E-03    6.2795177215851350E-01    6.1910112496782399E-01
Cs    2.5683247605562376E-01    5.1573074385948270E-01    4.9888747249503140E-01
Ge    3.8125790946313443E-01    6.1416471056346544E-01    6.1624352686229344E-01
Br    3.7776869096459220E-01    6.2063550782335797E-01    4.9606276694458934E-01
Br    3.8523996296549712E-01    5.0342542745055396E-01    6.3283562539606586E-01
Br    2.4117278696007266E-01    6.4950038912328634E-01    6.1032067837134485E-01
Cs    4.8206663427089175E-01    5.0478365173560158E-01    4.9688242523412168E-01
Ge    6.3104994213721832E-01    6.1152658299788976E-01    6.1109865926706486E-01
Br    6.1711251731057259E-01    6.3321035896762279E-01    5.0086987683922624E-01
Br    6.3810584100284018E-01    4.9324190909428045E-01    6.1513254725313027E-01
Br    4.9637855106980622E-01    6.1516021638869778E-01    6.3942080606035923E-01
Cs    7.4865654918267499E-01    4.9862402360371261E-01    4.9919770222324200E-01
Ge    8.7779107352212449E-01    6.2449604591233498E-01    6.0963089385140967E-01
Br    8.9600903733349258E-01    6.4056351588578053E-01    4.9368624335417854E-01
Br    8.6978485364552516E-01    4.9805767505191212E-01    5.9739748333331877E-01
Br    7.5108264992952523E-01    6.1916346822367196E-01    6.1558167032737576E-01
Cs   -7.5685499916134276E-03    7.6750363292269075E-01    4.9024849715591279E-01
Ge    1.1574405377423656E-01    8.7286659765774965E-01    6.2272236519188939E-01
Br    1.2611358878217394E-01    8.8164264767409739E-01    4.9891316145029391E-01
Br    9.8677794527379584E-02    7.4998316498206474E-01    6.2662757298502381E-01
Br    8.6734560546979540E-03    8.9199545348036002E-01    6.5383442287194748E-01
Cs    2.5623678376223608E-01    7.6070094401380228E-01    4.8461969765002622E-01
Ge    3.6803884996663311E-01    8.5199048971801761E-01    6.1505396618097496E-01
Br    3.8797801767821760E-01    8.7692229303430580E-01    5.0448747735757637E-01
Br    4.0337176455318402E-01    7.4286718201112956E-01    6.1695999483078379E-01
Br    2.5854568706095538E-01    8.5947016112196706E-01    5.9586078124381658E-01
Cs    5.0708566302051739E-01    7.4585742499621188E-01    4.9253380665264057E-01
Ge    6.1532041205072774E-01    8.7002087923272842E-01    6.1193482531498211E-01
Br    6.3289289894935874E-01    8.7168831107877831E-01    4.9327238558297409E-01
Br    6.1756429214199715E-01    7.5096667500400360E-01    6.0533844586117869E-01
Br    5.0256555190997920E-01    8.7744934206568526E-01    6.2871933539075486E-01
Cs    7.5220737129722293E-01    7.5309703549159013E-01    5.0684420325606427E-01
Ge    8.6298117606928570E-01    8.8326423858135161E-01    6.1099303185786724E-01
Br    8.6571445383742551E-01    8.6759284458916375E-01    5.0285193649012450E-01
Br    8.7283882175655048E-01    7.4968518683245589E-01    6.2372276442545693E-01
Br    7.4819070391588860E-01    8.8422447685055483E-01    6.1138659313092669E-01
Cs   -5.1351122186994707E-03    1.6058264650702476E-03    7.4572146944175299E-01
Ge    1.3280217589968721E-01    1.1572120366371634E-01    8.7856175819178439E-01
Br    1.3776167441859868E-01    1.2960762788337452E-01    7.6064419078921852E-01
Br    1.5021081700714856E-01   -3.0982422776564787E-03    8.5277448692427371E-01
Br   -1.2198613530828377E-03    1.2868516109092856E-01    8.7726774123119355E-01
Cs    2.6577869799282389E-01    7.6656957253457498E-03    7.4439901658213503E-01
Ge    3.7406996972464152E-01    1.3719627503878076E-01    8.7985822442539430E-01
Br    3.8301034778851817E-01    1.3524052328995759E-01    7.6038385300462619E-01
Br    3.6170183739735323E-01   -2.4398916534309673E-02    8.7974157487433913E-01
Br    2.5736219528644372E-01    1.2026031025403877E-01    8.6910752582057982E-01
Cs    4.9227563029948362E-01    9.1358762948598495E-03    7.6008842283213607E-01
Ge    6.1915595370750065E-01    1.1196932630632171E-01    8.6365248022180863E-01
Br    6.0743441269523668E-01    1.1777786190491574E-01    7.5370218326812632E-01
Br    6.2320489687885983E-01    1.5280111088820647E-03    8.6551762379115849E-01
Br    5.0527056095515877E-01    1.2655778112709237E-01    9.0277675441419103E-01
Cs    7.4532031407340082E-01   -2.8646676244552270E-02    7.4976777695129504E-01
Ge    8.7242491427785740E-01    1.2531246495266668E-01    8.6089362579209161E-01
Br    8.7232027371979104E-01    1.0854660645608145E-01    7.5128981097310865E-01
Br    8.8984983774768556E-01   -7.8969890678824706E-03    8.7065101282164192E-01
Br    7.4087891893471092E-01    1.2291784651359376E-01    8.6007016901522526E-01
Cs    1.1867076091314347E-02    2.3205766145927464E-01    7.4974161473119616E-01
Ge    1.2701018206131440E-01    3.8024332741875033E-01    8.8373583344899520E-01
Br    1.4152612332246467E-01    3.3914101207134978E-01    7.5991861217299184E-01
Br    1.3236870575684312E-01    2.3500323571337803E-01    8.7537821929344906E-01
Br    1.0926541870180516E-02    3.9701629953316836E-01    8.7632950273291021E-01
Cs    2.4738358838137950E-01    2.3482638613856896E-01    7.4763233381696337E-01
Ge    3.6720408955271361E-01    3.8744694209891911E-01    8.6584386307975625E-01
Br    3.8065361635379413E-01    3.5546139872080884E-01    7.4840412678448132E-01
Br    3.8115336445588993E-01    2.4350101870238469E-01    9.1278770942279774E-01
Br    2.5285478223341107E-01    3.6622418381235367E-01    8.8345538522500033E-01
Cs    4.9802828941548488E-01    2.4170856628980006E-01    7.5766170427133195E-01
Ge    6.2672654211491385E-01    3.7094683077182977E-01    8.5806217767872894E-01
Br    6.3299849625849025E-01    3.6611256532439118E-01    7.4499659430631704E-01
Br    6.3919905176383995E-01    2.5916549699459518E-01    8.5676830245975533E-01
Br    5.0646525213861004E-01    3.6868398947945025E-01    8.6156940493336276E-01
Cs    7.5071901387748019E-01    2.5330359584667328E-01    7.4850084386347726E-01
Ge    8.7193304819984108E-01    3.8136468472484736E-01    8.6567583646134372E-01
Br    8.6538599454082366E-01    3.8872938835302734E-01    7.3498099438487852E-01
Br    8.6147760340424895E-01    2.5372313187531814E-01    8.6138344550787871E-01
Br    7.6290565850263370E-01    3.9260988101967231E-01    8.8531240026933566E-01
Cs    5.2195742616877915E-03    5.0219945000336308E-01    7.7494859887463341E-01
Ge    1.3908217610992446E-01    6.3393947963747310E-01    8.7458313819093936E-01
Br    1.0057332196096450E-01    6.2963682191245995E-01    7.5035798573103252E-01
Br    1.4076097284154623E-01    5.0280698711036942E-01    8.8254895187385007E-01
Br   -9.3616389218496594E-03    6.2172408394483458E-01    8.7329669734402349E-01
Cs    2.5069503869963788E-01    4.6886237414293835E-01    7.5545420012560838E-01
Ge    3.9973441117630032E-01    6.3105366391824547E-01    8.8279830886906097E-01
Br    3.5947611163821963E-01    6.3325383868821694E-01    7.3892869806729899E-01
Br    3.8700065710859094E-01    4.8959725968053786E-01    8.4617248920283583E-01
Br    2.4462473122996803E-01    6.2711537815233964E-01    8.5660307738223385E-01
Cs    5.0502893865131993E-01    4.6478888102603444E-01    7.3133019227194762E-01
Ge    6.2935289904896252E-01    6.1648686349135295E-01    8.5698423989425687E-01
Br    6.2383945893075121E-01    6.4469256655434926E-01    7.4604572468535268E-01
Br    6.2250923127867408E-01    4.9269489292234375E-01    8.4515667230095126E-01
Br    5.0176837630553395E-01    5.9515335480530840E-01    8.6474080162488998E-01
Cs    7.3704163918483900E-01    5.1497178061797766E-01    7.3970664233859595E-01
Ge    8.7563578173195211E-01    6.2607911066010358E-01    8.6018227517191648E-01
Br    8.6326909693866860E-01    6.4926622954629876E-01    7.3545113652213678E-01
Br    8.7097477433097303E-01    5.0138492186218264E-01    8.6420537442957768E-01
Br    7.4159582221882103E-01    6.1551480261255032E-01    8.6907617615918242E-01
Cs   -1.2005057435031873E-02    7.4038924099066539E-01    7.5377801320024329E-01
Ge    1.5048931178352909E-01    8.6593838211130614E-01    8.6190583408797516E-01
Br    1.4667263791485169E-01    8.3916529737508794E-01    7.5218558287992721E-01
Br    1.1754114414261355E-01    7.5369314745150051E-01    8.8593071115217492E-01
Br   -3.5579736586649311E-03    8.5431086263869271E-01    8.5195034830865757E-01