 # Version information for this restart file 
 # current date 2021-08-22 23:16:25.096
 # current working dir /projectsp/f_rcr78_1/MW/Hybrid_Perovskite/CsGeBr3/4x4/550K
 # Program compiled at                              Fri Sep 13 14:50:45 EDT 2019
 # Program compiled on                             slepner083.amarel.rutgers.edu
 # Program compiled for                                                    local
 # Source code revision number                                       git:e35496b
 &GLOBAL
   PRINT_LEVEL  LOW
   PROJECT_NAME CGB_MD
   RUN_TYPE  MD
   WALLTIME 23:58:00
 &END GLOBAL
 &MOTION
   &MD
     ENSEMBLE  NVT
     STEPS  5000
     TIMESTEP     9.9999999999999989E-01
     STEP_START_VAL  9488
     TIME_START_VAL     9.4879999999989814E+03
     ECONS_START_VAL    -4.1284717054172052E+03
     TEMPERATURE     5.5000000000000000E+02
     COMVEL_TOL     1.0000000000000000E-08
     &THERMOSTAT
       TYPE  CSVR
       &CSVR
         TIMECON     9.9999999999999986E+01
         &THERMOSTAT_ENERGY
              -7.9606519180016833E-01
         &END THERMOSTAT_ENERGY
         &RNG_INIT
Wiener process for Thermostat # 1        1 F T F  -8.9656412346262260E-01        2493347118.0        1195848927.0        2429869871.0         326012297.0         747431059.0        3218113075.0             12345.0             12345.0             12345.0             12345.0             12345.0             12345.0             12345.0             12345.0             12345.0             12345.0             12345.0             12345.0
         &END RNG_INIT
       &END CSVR
     &END THERMOSTAT
     &AVERAGES  T
       &RESTART_AVERAGES
         ITIMES_START  1
         AVECPU     2.1948496404967816E+01
         AVEHUGONIOT     0.0000000000000000E+00
         AVETEMP_BARO     0.0000000000000000E+00
         AVEPOT    -4.1285248647190510E+03
         AVEKIN     8.3553304214357549E-01
         AVETEMP     5.5139007773074320E+02
         AVEKIN_QM     0.0000000000000000E+00
         AVETEMP_QM     0.0000000000000000E+00
         AVEVOL     7.6368394055423283E+04
         AVECELL_A     4.2426566442310715E+01
         AVECELL_B     4.2426566442310715E+01
         AVECELL_C     4.2426566442310715E+01
         AVEALPHA     9.0000000000000000E+01
         AVEBETA     9.0000000000000000E+01
         AVEGAMMA     9.0000000000000000E+01
         AVE_ECONS    -9.3969534589878423E-01
         AVE_PRESS     0.0000000000000000E+00
         AVE_PXX     0.0000000000000000E+00
       &END RESTART_AVERAGES
     &END AVERAGES
   &END MD
   &PRINT
     &TRAJECTORY  SILENT
       &EACH
         MD  1
       &END EACH
     &END TRAJECTORY
     &VELOCITIES  SILENT
       &EACH
         MD  1
       &END EACH
     &END VELOCITIES
     &FORCES  SILENT
       &EACH
         MD  1
       &END EACH
     &END FORCES
     &STRESS  SILENT
       &EACH
         MD  1
       &END EACH
     &END STRESS
     &RESTART  SILENT
       BACKUP_COPIES  3
       &EACH
         MD  1
       &END EACH
     &END RESTART
     &RESTART_HISTORY  SILENT
       &EACH
         MD  5
       &END EACH
     &END RESTART_HISTORY
   &END PRINT
 &END MOTION
 &FORCE_EVAL
   METHOD  QS
   &DFT
     BASIS_SET_FILE_NAME BASIS_MOLOPT
     POTENTIAL_FILE_NAME GTH_POTENTIALS
     MULTIPLICITY  1
     CHARGE  0
     &SCF
       MAX_SCF  30
       EPS_SCF     1.0000000000000001E-05
       SCF_GUESS  ATOMIC
       &OT  T
         MINIMIZER  DIIS
         PRECONDITIONER  FULL_SINGLE_INVERSE
       &END OT
       &OUTER_SCF  T
         EPS_SCF     1.0000000000000001E-05
         MAX_SCF  10
       &END OUTER_SCF
       &PRINT
         &RESTART  OFF
         &END RESTART
       &END PRINT
     &END SCF
     &QS
       EPS_DEFAULT     1.0000000000000000E-10
       EXTRAPOLATION  ASPC
       METHOD  GPW
     &END QS
     &MGRID
       NGRIDS  4
       CUTOFF     6.0000000000000000E+02
       REL_CUTOFF     8.0000000000000000E+01
     &END MGRID
     &XC
       DENSITY_CUTOFF     1.0000000000000000E-10
       GRADIENT_CUTOFF     1.0000000000000000E-10
       TAU_CUTOFF     1.0000000000000000E-10
       &XC_FUNCTIONAL  NO_SHORTCUT
         &PBE  T
         &END PBE
       &END XC_FUNCTIONAL
     &END XC
     &POISSON
       PERIODIC  XYZ
     &END POISSON
     &REAL_TIME_PROPAGATION
       INITIAL_WFN  SCF_WFN
     &END REAL_TIME_PROPAGATION
     &PRINT
       &MO_CUBES  SILENT
         WRITE_CUBE  F
         NLUMO  4
         NHOMO  4
         &EACH
           MD  10
         &END EACH
       &END MO_CUBES
       &E_DENSITY_CUBE  OFF
       &END E_DENSITY_CUBE
     &END PRINT
   &END DFT
   &SUBSYS
     &CELL
       A     2.2451172000000000E+01    0.0000000000000000E+00    0.0000000000000000E+00
       B     0.0000000000000000E+00    2.2451172000000000E+01    0.0000000000000000E+00
       C     0.0000000000000000E+00    0.0000000000000000E+00    2.2451172000000000E+01
       MULTIPLE_UNIT_CELL  1 1 1
     &END CELL
     &COORD
Cs    9.8435113264935068E-03    2.5610683263086109E-03   -2.3187519215609298E-02
Ge    1.2630710272058823E-01    1.3056782435816580E-01    1.1159437011041480E-01
Br    1.2219077633119205E-01    1.2355150295069174E-01   -7.2331240456873478E-04
Br    1.3933994228437604E-01    1.5996437364107895E-03    1.3506149071749352E-01
Br    8.2983837061865098E-03    1.2809612984421628E-01    1.1627683889901816E-01
Cs    2.5274796211799161E-01    1.3485206396818694E-02   -2.3739392589818095E-02
Ge    3.7456428994676544E-01    1.3605139705526462E-01    1.2721978437886397E-01
Br    3.7762030679150221E-01    1.3048661222249372E-01    4.2559976090948146E-03
Br    3.5318130756209731E-01   -7.5621289949930775E-04    1.2402864933779205E-01
Br    2.5974049628118756E-01    1.2274929538511747E-01    1.2626694105293707E-01
Cs    5.1429161996643435E-01    3.6267719285788523E-03   -1.2552139737859820E-02
Ge    6.1818141882582234E-01    1.2993207616900637E-01    1.2375643096175654E-01
Br    5.9869262244348631E-01    1.3410691444522818E-01    4.9865719382800357E-03
Br    6.0943211471252023E-01   -2.2815582949793018E-03    1.2045204123635325E-01
Br    4.9923397867128499E-01    1.3806209101994724E-01    1.5146681149109345E-01
Cs    7.5242776720002147E-01    1.6722430874251102E-02    2.2829628251111369E-02
Ge    8.7427642211186041E-01    1.2304698409767556E-01    1.2732634791469005E-01
Br    8.6886079230895019E-01    1.2498415357592395E-01    9.8636750645048950E-03
Br    8.8535571312755112E-01   -2.2178686083912775E-03    1.2653343964697603E-01
Br    7.6062564392826804E-01    1.4711873065061870E-01    1.5267363724619526E-01
Cs    2.1096499347099489E-02    2.4889611468752668E-01    3.2472678531179633E-03
Ge    1.1979405520659703E-01    3.7214900327968370E-01    1.2432248881797402E-01
Br    1.3760520407552324E-01    3.8529278796744060E-01   -1.1520927565645406E-02
Br    1.4937554076302881E-01    2.5150621290200231E-01    1.2852775575575276E-01
Br    1.1096661506934077E-02    3.5840971146209594E-01    1.1283077878936530E-01
Cs    2.7039067164497088E-01    2.5288977631895188E-01   -1.8671563457735657E-02
Ge    3.6520265906677962E-01    3.8014698096146043E-01    1.3111332850515578E-01
Br    3.8893019200661905E-01    3.8187421226192247E-01    9.1206206633132683E-03
Br    3.7711567287720904E-01    2.5125691183763976E-01    1.0112902625501323E-01
Br    2.4859051567167251E-01    3.8011566492824839E-01    1.2662455794751304E-01
Cs    5.0541767709178465E-01    2.6884713977860886E-01   -1.1442537252462382E-02
Ge    6.0868366029094045E-01    3.7764491752596790E-01    1.2753796325267933E-01
Br    6.1186301085200978E-01    3.8584745472371790E-01    1.6788018590213626E-02
Br    6.3689754684575361E-01    2.4117440604604382E-01    1.4783222821157996E-01
Br    5.0053644654822083E-01    3.6520661893871448E-01    1.4863762626326008E-01
Cs    7.5781473682693989E-01    2.4624249184130279E-01    2.4275375427618946E-02
Ge    8.6877698872897813E-01    3.6145694422925106E-01    1.2831153793228958E-01
Br    8.6400607993454714E-01    3.7022232141401179E-01    2.2365995828196499E-03
Br    8.9432615182787378E-01    2.4638307367855317E-01    1.3017092142791781E-01
Br    7.5651524688975946E-01    3.7989448921769925E-01    1.3224080046546527E-01
Cs   -2.4828917951680877E-03    4.8615376581078623E-01   -3.5770641007370528E-03
Ge    1.1707367000302082E-01    6.2923235241807618E-01    1.0510580243415063E-01
Br    1.2023583933609513E-01    6.4820051824150537E-01   -8.4582484351791547E-03
Br    1.1425132103951022E-01    4.8953838828714907E-01    1.1356971993507471E-01
Br   -2.1048656929480098E-03    6.0482774211812529E-01    1.4781788951275293E-01
Cs    2.4044360651667959E-01    4.9550206154530158E-01    1.8501221461489907E-02
Ge    3.8263297234628468E-01    6.2839167415602748E-01    1.2603184786643765E-01
Br    3.5999272300579310E-01    5.9965862117988045E-01    1.1488003663364563E-03
Br    3.7183816307847289E-01    4.9809945438418102E-01    1.3805885278266047E-01
Br    2.3495265728793593E-01    6.2621384481972953E-01    1.1642797338728399E-01
Cs    4.8519233250336075E-01    4.8304216824413782E-01    2.2686857899640617E-02
Ge    6.3525641436865876E-01    6.2640341510974673E-01    1.0957614126460265E-01
Br    6.4070347662403149E-01    6.2365538540251708E-01   -3.2775351537653458E-03
Br    6.0971290076867468E-01    5.0112534292276922E-01    1.3907466946212393E-01
Br    4.9642511833861924E-01    6.5235842513092468E-01    1.2018722540065467E-01
Cs    7.7200316889259935E-01    5.1116177587512912E-01    9.3022819924892964E-03
Ge    8.7967659535758813E-01    6.1361445761916000E-01    1.2410292639446369E-01
Br    8.7734774364851820E-01    6.3581710053007512E-01    8.2302220023662848E-03
Br    8.7771426317638546E-01    5.0493141801502173E-01    1.5287562179677108E-01
Br    7.5211139073488531E-01    6.3041327846906792E-01    1.3113010139687128E-01
Cs   -7.3704631420831333E-04    7.5536212339233788E-01    1.6174263882058493E-02
Ge    1.3609147160705382E-01    8.9150288775092901E-01    1.1336630821416270E-01
Br    1.2096466249141163E-01    9.0746033698956874E-01   -2.3876145553828536E-03
Br    1.3715643336575956E-01    7.4215553981285654E-01    1.3377316860153807E-01
Br   -3.8103386229370816E-03    8.6031439224922468E-01    1.5027782441606358E-01
Cs    2.4979214725612550E-01    7.4509945799391830E-01   -8.6782532149248890E-03
Ge    3.8137743947052816E-01    8.8766972492700114E-01    1.1294671723123959E-01
Br    3.7947729188549617E-01    8.7399621257417182E-01   -1.2396137640759088E-02
Br    3.6229229372509653E-01    7.3947247583211173E-01    1.1466100207711649E-01
Br    2.4502809250684865E-01    8.6573331688395871E-01    1.1494932608880018E-01
Cs    5.0805782435265301E-01    7.4412530378880093E-01   -5.4801749548377236E-03
Ge    6.2252391053340472E-01    8.7724582987533684E-01    1.1720561239795539E-01
Br    6.1193063837418560E-01    8.7214022070410147E-01   -4.5604204118900897E-03
Br    6.3927991758961888E-01    7.4197475023030035E-01    1.1839692188868993E-01
Br    4.8883112536941509E-01    8.7199199579812225E-01    1.0036723042532086E-01
Cs    7.5928585413920147E-01    7.4268640051169954E-01   -6.5627005890656004E-03
Ge    8.8143312970369847E-01    8.6951632880661478E-01    1.2985899256413916E-01
Br    8.7786790548918059E-01    8.8022815190356674E-01   -3.4426151528306362E-03
Br    8.8600160327050359E-01    7.4784520410829791E-01    1.1899016935667196E-01
Br    7.3515745603415039E-01    8.7343521122583923E-01    1.2743329248554411E-01
Cs    4.1380488065216928E-04   -1.7456693866325271E-02    2.5662598136797232E-01
Ge    1.3078391827480418E-01    1.0644403073058119E-01    3.7507487228546077E-01
Br    9.3292681823441026E-02    1.1036093594830088E-01    2.5073040135608005E-01
Br    1.3292378577113589E-01   -8.2741966843714113E-03    3.7867526456707190E-01
Br    2.8220267835117291E-03    9.5400927653049500E-02    3.8993639373497341E-01
Cs    2.5170391348169718E-01   -1.9023380508501775E-02    2.5790419623356942E-01
Ge    3.8296959913106532E-01    1.1811024980142716E-01    3.6788408519555682E-01
Br    3.9922655106330862E-01    1.4315744532577371E-01    2.6010404914422192E-01
Br    3.9026120286527821E-01    3.5021850149775214E-04    3.6485710345716721E-01
Br    2.4560839582233482E-01    1.0747061816848223E-01    3.5862242081456486E-01
Cs    4.7708210101262016E-01   -6.5283804200645806E-03    2.4919530897555645E-01
Ge    6.2801561786201798E-01    1.2751317495017378E-01    3.7882153184433387E-01
Br    6.1335592138721551E-01    1.2450417148608484E-01    2.5134793876936212E-01
Br    6.0069736156012432E-01   -2.8401376587182383E-03    3.8107698421322128E-01
Br    4.9827718438331497E-01    1.2902496421492946E-01    3.8551591869408730E-01
Cs    7.5467269919732116E-01    1.3182473747480099E-02    2.4695436552831940E-01
Ge    8.8790309732510009E-01    1.2398750354752626E-01    3.8187796277344466E-01
Br    9.0265393765868918E-01    1.2051088553595721E-01    2.6404207082635650E-01
Br    8.5669658192464715E-01   -9.0942088676433247E-03    3.7970371742319614E-01
Br    7.4672412701423563E-01    1.3223037201843396E-01    3.8113473583135327E-01
Cs    3.1305032544974160E-03    2.5031368365403778E-01    2.5293176909466170E-01
Ge    1.2429271483882844E-01    3.6496298724597920E-01    3.7073254912202364E-01
Br    1.1094662327500887E-01    3.8700595194324677E-01    2.4167191568201513E-01
Br    1.1535010159137285E-01    2.5086196436148178E-01    3.6871279382237843E-01
Br   -6.5331299388222295E-03    3.8316201921351345E-01    3.7740755728848052E-01
Cs    2.3764389635276156E-01    2.5765081766507480E-01    2.5198369210600463E-01
Ge    3.6658531824379764E-01    3.6821332976941873E-01    3.7798303027325614E-01
Br    3.7629444710339471E-01    3.4675244308585101E-01    2.5492249288810243E-01
Br    3.7297358284892579E-01    2.5783884189896494E-01    3.8333563637981100E-01
Br    2.4868030260189652E-01    3.7233385881636721E-01    3.8043556324679728E-01
Cs    5.0541591075274073E-01    2.5972434906111591E-01    2.6938650078477994E-01
Ge    6.2638680129260105E-01    3.9199433393993988E-01    3.8231971660775277E-01
Br    6.1557096881781070E-01    3.8489006432666539E-01    2.7004370324682803E-01
Br    6.0926225499909170E-01    2.5171009642375913E-01    3.8714077905748318E-01
Br    4.9784377371032856E-01    3.9334950209683756E-01    3.8496805399441614E-01
Cs    7.4065638689058166E-01    2.3828366424941447E-01    2.6873968747720295E-01
Ge    8.7147544252628595E-01    3.7369888828113978E-01    3.8745608486038963E-01
Br    8.6901833057319577E-01    3.5219903002218272E-01    2.4815589708210800E-01
Br    8.8758850323153482E-01    2.4083809005633142E-01    3.7244445014551997E-01
Br    7.4872348680760925E-01    3.8087072458357230E-01    3.8386376774415754E-01
Cs   -9.1851645096428809E-03    5.0001287523589488E-01    2.5369489497324282E-01
Ge    1.1731455844745639E-01    6.0145968899162161E-01    3.6737704117408854E-01
Br    1.2196893564981702E-01    6.2294550388834180E-01    2.3494610751647560E-01
Br    1.2406646884284442E-01    4.9065473964323486E-01    3.6597516026499627E-01
Br    1.8944673640844752E-03    6.2638542943503184E-01    3.6897435656214916E-01
Cs    2.4889359697382082E-01    5.0324748711627709E-01    2.5432636911642037E-01
Ge    3.6902228575187335E-01    6.2069593656698219E-01    3.7052486595511702E-01
Br    3.8880852324998072E-01    6.5355526139517550E-01    2.5547808191749033E-01
Br    3.7519426223126173E-01    5.0977159629884128E-01    3.3993870253048536E-01
Br    2.4072782929296854E-01    6.1552698619160473E-01    3.9020064325545895E-01
Cs    5.0996899518083050E-01    5.3310773742401074E-01    2.5959220526687288E-01
Ge    6.4040423853468287E-01    6.4023929010620784E-01    3.6934980475861867E-01
Br    6.2192585805111777E-01    6.4212068587245907E-01    2.4523688979776190E-01
Br    6.3526754709952449E-01    5.0786724756662349E-01    3.9615137886555163E-01
Br    4.8059642898916521E-01    6.0704973795727579E-01    3.8695542833631047E-01
Cs    7.4626406444376481E-01    5.1895516180837797E-01    2.4605099060186253E-01
Ge    8.6883637124344804E-01    6.1905703154699188E-01    3.6168636443282381E-01
Br    8.7175846114547573E-01    6.4378251890568472E-01    2.5150913886960885E-01
Br    8.5102700299768463E-01    5.0390817291647794E-01    3.4570920720603110E-01
Br    7.5859132773212490E-01    6.3865248802485708E-01    3.7648543636506349E-01
Cs   -6.5336144391420267E-03    7.3844813791831598E-01    2.6787054906664975E-01
Ge    1.2337678135292852E-01    8.5129652512736476E-01    3.6999790507896180E-01
Br    1.1934999303505385E-01    8.5633196708878057E-01    2.6310505436490139E-01
Br    1.0844458090086752E-01    7.3830876094403564E-01    3.7362060419797971E-01
Br   -3.8840466583647988E-03    8.6988771640046159E-01    3.7597143098293417E-01
Cs    2.5210398520023575E-01    7.3890479199005499E-01    2.5011593906770768E-01
Ge    3.7078134548296365E-01    8.6458627032818525E-01    3.6909971779434164E-01
Br    3.6448491512811088E-01    8.5872936767979036E-01    2.2407165667047768E-01
Br    3.8169910842054455E-01    7.4521202473301618E-01    3.8370486112363034E-01
Br    2.4820538799764011E-01    8.6493434055109841E-01    3.6109969711968676E-01
Cs    5.0057662080036369E-01    7.6241130294148274E-01    2.2628088326900422E-01
Ge    6.1381826035201559E-01    8.7862821207366026E-01    3.6052285346495710E-01
Br    6.1248285486625798E-01    8.8051646383952331E-01    2.4528214141797072E-01
Br    6.2679047297936530E-01    7.5570893262583183E-01    3.6579557339552865E-01
Br    4.9650857285268607E-01    8.5941579078437480E-01    3.6312502154287740E-01
Cs    7.4490334847451289E-01    7.6001686944713875E-01    2.5311773574646101E-01
Ge    8.6272569841194002E-01    8.7047574943448769E-01    3.8822613754804081E-01
Br    8.5497720060468885E-01    8.7604394000744734E-01    2.4458135210920037E-01
Br    8.5907673581063959E-01    7.4668944219104294E-01    3.8667444605805867E-01
Br    7.3895848853329338E-01    8.7459228398595890E-01    3.7024553268184951E-01
Cs    3.2921308377892198E-03   -1.0700983932463565E-02    5.0437206885715458E-01
Ge    1.2930144417590528E-01    1.2104418009708555E-01    6.2520218049317866E-01
Br    1.0192247010420283E-01    1.1386792593828841E-01    5.0031187281694434E-01
Br    1.1314589056586832E-01   -4.1037147701457983E-03    6.3176937326539195E-01
Br    2.7838346758874747E-03    1.2803268781583033E-01    6.3461824883819995E-01
Cs    2.4039657210321741E-01    1.2072488103987705E-02    4.9336597621606570E-01
Ge    3.7106999343847552E-01    1.4120792923326012E-01    6.1688243423916855E-01
Br    3.5422025343910124E-01    1.3227890061237718E-01    4.9147544365968837E-01
Br    4.0379410768109025E-01    8.0489390575099306E-03    6.2284983490580437E-01
Br    2.4932633470212309E-01    1.1266902483705493E-01    6.2689058393030106E-01
Cs    4.9856921163730533E-01    8.0911137833327585E-03    4.9414720168216902E-01
Ge    6.3687447226232263E-01    1.2849960529044763E-01    6.2556361798459259E-01
Br    6.3235105148133408E-01    1.2563520589607557E-01    5.0658630883845113E-01
Br    6.4605107438995724E-01    9.4371504759757537E-03    6.2811367382827332E-01
Br    4.9301792075277506E-01    1.4976851633900243E-01    5.9760129586833211E-01
Cs    7.4142089985688764E-01   -1.2099736342335713E-02    5.0274998567457341E-01
Ge    8.7673273378324035E-01    1.1020837352496489E-01    6.2352994451911659E-01
Br    8.5162849741130819E-01    1.1435298572567593E-01    5.1197577379125414E-01
Br    8.7236239457149778E-01    1.4933834708852648E-03    6.2626384720295369E-01
Br    7.5509462896426283E-01    1.3549637953732163E-01    6.3556818994209618E-01
Cs    1.1297516030752646E-02    2.4725790574547632E-01    4.8681959656140145E-01
Ge    1.3128105123593917E-01    3.7678867313962761E-01    6.3654331923953267E-01
Br    1.3335279630324545E-01    3.8747790491388096E-01    4.9594446600050435E-01
Br    1.3842340067860057E-01    2.5031176842785413E-01    6.2221664154932788E-01
Br   -1.2378173040882200E-02    3.6884165455732121E-01    6.4789594076891210E-01
Cs    2.3447456728388741E-01    2.3810038433238148E-01    4.8507559126518152E-01
Ge    3.7203239318177717E-01    3.9667431535834519E-01    6.3370904442777631E-01
Br    3.7486897387527446E-01    3.7935312129565352E-01    5.1336624498067485E-01
Br    3.7310466288625660E-01    2.6549692322173157E-01    6.3560685656226434E-01
Br    2.4754615319361165E-01    3.7928261531772872E-01    6.1477389035550500E-01
Cs    5.0783892804555064E-01    2.7587734038536277E-01    5.1806501879069256E-01
Ge    6.3728543564198925E-01    3.7724910410441792E-01    6.2740101233023260E-01
Br    6.3471168544705836E-01    3.7911190377641640E-01    5.1042665741144189E-01
Br    6.0986094534014756E-01    2.6434283907005091E-01    6.2136534880231720E-01
Br    4.9742540984340755E-01    3.8303944848677590E-01    6.3944433637133735E-01
Cs    7.4263491083927846E-01    2.3287267879877768E-01    5.0328222487040319E-01
Ge    8.7231207718044446E-01    3.7693890322543244E-01    6.3116960944169187E-01
Br    8.7707631517197449E-01    3.5973367069700835E-01    5.0871455156943923E-01
Br    8.7563408744677107E-01    2.5240155348392534E-01    6.1906883880971908E-01
Br    7.4509386730390192E-01    3.5063336177533821E-01    6.2528617073040527E-01
Cs    6.6890290684896410E-03    4.8774952109668601E-01    5.1357750511181632E-01
Ge    1.3468314487002861E-01    6.1167841256223698E-01    6.2532277423045435E-01
Br    1.3530459080817711E-01    6.1127757434625740E-01    4.9876487395768598E-01
Br    1.1698839997083081E-01    5.0056698226392293E-01    6.3025320164740128E-01
Br    6.0038629804100886E-03    6.3516122838245326E-01    6.1565800861578568E-01
Cs    2.5703991194060899E-01    4.9220708782051975E-01    4.7383299356982334E-01
Ge    3.8137152900009624E-01    6.4772460055143877E-01    6.1696558228230525E-01
Br    3.7266008501010345E-01    6.1634963054316849E-01    5.1083220876468605E-01
Br    3.8343636318855701E-01    5.0660189072205475E-01    6.3044152204910575E-01
Br    2.5640034726926875E-01    6.1434753786979013E-01    6.4194336669667507E-01
Cs    4.9627741609132292E-01    4.9706207091057836E-01    5.1591126745391125E-01
Ge    6.3060673343904561E-01    6.3162806170046670E-01    6.1809698103389288E-01
Br    6.4922296569643634E-01    6.3927535937122915E-01    5.0256817211553273E-01
Br    6.1290354665200197E-01    5.1866100917683433E-01    6.1069064750915214E-01
Br    5.1083631449807176E-01    6.4872560442908811E-01    6.0787852631798400E-01
Cs    7.5803852469699362E-01    5.0590439643229534E-01    5.0624736026566064E-01
Ge    8.9111035161694629E-01    6.1762937429534848E-01    6.1449381864400299E-01
Br    8.7710149770769663E-01    6.0481500442534575E-01    5.0362463592950513E-01
Br    9.0013838023416981E-01    5.0457425742668716E-01    6.1369312875918225E-01
Br    7.5502376655499148E-01    6.1263570621106656E-01    6.4850978192137321E-01
Cs   -3.2675784078712144E-03    7.5128616783189006E-01    4.8349716543628862E-01
Ge    1.2327005353607504E-01    8.6970391429189642E-01    6.1003929290495562E-01
Br    1.3108487900258053E-01    8.7576627299460963E-01    4.9902649037142427E-01
Br    1.2333620653522567E-01    7.4423217848011558E-01    6.1421370213294224E-01
Br    2.1158290517513093E-04    8.6918440160361365E-01    6.1338731566104621E-01
Cs    2.4062136399931480E-01    7.4490091009537340E-01    4.9368813117685123E-01
Ge    3.7592350070693370E-01    8.9717309801090994E-01    6.1283532409434871E-01
Br    3.8398581597026388E-01    8.8765960612944639E-01    4.8142267713020387E-01
Br    3.5592899141464718E-01    7.5168126750844555E-01    5.9761157488622041E-01
Br    2.6117542637940960E-01    8.9505998617879867E-01    6.1492219001839654E-01
Cs    5.1131454942412990E-01    7.4000375564963472E-01    4.7818455869553955E-01
Ge    6.1192720194159633E-01    8.7445341299584789E-01    6.0835121948938164E-01
Br    6.0493609755266819E-01    8.6968121258868525E-01    4.9815953510517214E-01
Br    6.2952629953508910E-01    7.6190283322714270E-01    6.3055638984868689E-01
Br    4.9545324017817821E-01    8.6583268736550101E-01    6.2096804245923531E-01
Cs    7.4486972407745422E-01    7.6071998533945873E-01    5.1225932543035302E-01
Ge    8.7139802242725772E-01    8.6605118227552991E-01    6.3448774657041274E-01
Br    8.6724468127090981E-01    8.6904067800317097E-01    5.0456641889069631E-01
Br    8.8363827237525194E-01    7.5154888377463680E-01    5.9706316654492708E-01
Br    7.5765193899161931E-01    8.6772247247121548E-01    6.3944665821933688E-01
Cs   -1.6403555977374126E-02   -1.8416617724210660E-02    7.4357087928603172E-01
Ge    1.1691599478688439E-01    1.3410156831003700E-01    8.6356111297012395E-01
Br    1.0704164289177964E-01    1.1629823362350922E-01    7.4568885537397744E-01
Br    1.3016166046907818E-01    1.9199018675127731E-03    8.7323431916271588E-01
Br   -1.1828342482865640E-02    1.0688592278123139E-01    8.5483303465091620E-01
Cs    2.4528169042157499E-01   -2.4229847500398622E-03    7.3837418323874204E-01
Ge    3.8107889041157700E-01    1.2389332251748102E-01    8.6428505348111351E-01
Br    3.7826699736041997E-01    1.4773325083721128E-01    7.5081748041090379E-01
Br    3.7388949027445134E-01    7.5293265317529492E-03    8.7661393900739193E-01
Br    2.3089179635854898E-01    1.3365783285361532E-01    8.5528321901986037E-01
Cs    5.1506805326785632E-01    1.7418901191834082E-03    7.4129385598969122E-01
Ge    6.3460987864723628E-01    1.2162000760067372E-01    8.6656516731080602E-01
Br    6.4423180075052966E-01    1.0855334120124054E-01    7.4979962797213173E-01
Br    6.1525108525299277E-01   -1.9378366869687738E-03    8.7049109860357254E-01
Br    4.9785163568459689E-01    1.2038453795795000E-01    8.5347556304169325E-01
Cs    7.6442068817931141E-01    1.7592974337124541E-02    7.5681345516219856E-01
Ge    8.7817729718010495E-01    1.2478181709633279E-01    8.8278560975723785E-01
Br    8.6208055050008048E-01    1.3492776696506426E-01    7.7104079985133034E-01
Br    8.8052039316461528E-01    8.3575753729836348E-04    8.9195116769524341E-01
Br    7.4949797212570868E-01    9.8822359613043892E-02    8.8856532850022441E-01
Cs   -8.9334126904199087E-03    2.4194150416192473E-01    7.5095519582025705E-01
Ge    1.2090620267610921E-01    3.7642405236994569E-01    8.8151958839645239E-01
Br    1.4743058707486886E-01    3.5912009477872919E-01    7.5155100110842010E-01
Br    1.2276470733921935E-01    2.4869087371544776E-01    8.9038951782388698E-01
Br   -3.4077575534727346E-03    3.6951997745625559E-01    8.8668681900374502E-01
Cs    2.6606861576693602E-01    2.4997146498345296E-01    7.3784612442394548E-01
Ge    3.6695517965603869E-01    3.8435735548649841E-01    8.7700040837847992E-01
Br    3.6681250974784885E-01    3.8709202026361827E-01    7.5430515028333622E-01
Br    3.7846759025787713E-01    2.6137214296820571E-01    8.7052664178494277E-01
Br    2.5708581225360827E-01    4.0088876094287046E-01    8.9661190360525223E-01
Cs    4.8901510124078840E-01    2.5376019047456355E-01    7.3695775378574691E-01
Ge    6.2320427669898593E-01    3.6778942052069263E-01    8.6952404320059407E-01
Br    6.3280045181521372E-01    3.7681163461850092E-01    7.5915112911416283E-01
Br    6.1498797654136417E-01    2.5130888771667403E-01    8.6827904033535264E-01
Br    5.1322916976821209E-01    3.8085290496215551E-01    8.7798338393334996E-01
Cs    7.6381072558048735E-01    2.8136285545087619E-01    7.6773072192770009E-01
Ge    8.7720884465914373E-01    3.7110452694867946E-01    8.8091729188201928E-01
Br    8.7450154554913617E-01    3.9277814960163410E-01    7.5602060470593480E-01
Br    8.7498731156839749E-01    2.4782587360949299E-01    8.8887575480333170E-01
Br    7.5953840417419338E-01    3.7311854239836101E-01    8.9038304341207886E-01
Cs   -2.0657705453623956E-02    4.9959642428423395E-01    7.6058685075287380E-01
Ge    1.3965381234569441E-01    6.1354229454645581E-01    8.7194215064471536E-01
Br    1.2581421730601255E-01    6.1462503495273735E-01    7.5452027773129915E-01
Br    1.0202529016527662E-01    5.0870295593340675E-01    8.7919232751176424E-01
Br   -3.7482798770670520E-03    6.2385110142652100E-01    8.8908547029709672E-01
Cs    2.2582149111421504E-01    4.8338358941212728E-01    7.4797254249345280E-01
Ge    3.8749876215500478E-01    6.3217712662081349E-01    8.6532880521727740E-01
Br    3.7932155166236126E-01    6.2700968053579864E-01    7.5457749399857565E-01
Br    3.7915781848830077E-01    4.9735896919600364E-01    8.6672383815162335E-01
Br    2.5101490711917468E-01    5.9512570440126822E-01    8.7037828148299845E-01
Cs    5.0780075250561529E-01    5.0128439535932900E-01    7.4952449722250103E-01
Ge    6.2528272196119450E-01    6.1053221827593840E-01    8.5643456039106414E-01
Br    6.1147672656753160E-01    6.3016068231352296E-01    7.3978535022971426E-01
Br    6.3297606081560875E-01    4.9961392027119134E-01    9.0480213746740701E-01
Br    5.0314434366520711E-01    6.3281010777044489E-01    8.7520906725918168E-01
Cs    7.4701968968403543E-01    4.8271371666420676E-01    7.6010395711102463E-01
Ge    8.7871913136035917E-01    6.3845713724311104E-01    8.7316858824483179E-01
Br    8.9563882233256498E-01    6.2773721692449713E-01    7.6009668111394002E-01
Br    8.6586229306902196E-01    4.9314548843690986E-01    8.7846954791919762E-01
Br    7.4031701040785136E-01    6.2199667303180006E-01    8.5154437807059391E-01
Cs    1.4866791102241803E-02    7.3874821048029071E-01    7.5914241925686077E-01
Ge    1.2780362436903281E-01    8.7922436866075804E-01    8.6804641181282327E-01
Br    1.0900879909633197E-01    8.6805191066007270E-01    7.5850651866837815E-01
Br    1.4250439069446674E-01    7.3967318585215758E-01    8.6147170181609189E-01
Br   -1.2165857159897866E-02    8.7030637060412652E-01    8.7768740337616113E-01
Cs    2.4092408629282980E-01    7.3236911921254322E-01    7.5458174510517428E-01
Ge    3.7967870626728517E-01    8.6946922391405679E-01    8.6553943852016091E-01
Br    3.8455051230637161E-01    8.7906170655580274E-01    7.2531394756147216E-01
Br    3.6532981909100432E-01    7.5323065422416080E-01    8.8494660876755726E-01