 # Version information for this restart file 
 # current date 2021-09-13 18:11:30.957
 # current working dir /projectsp/f_rcr78_1/MW/Hybrid_Perovskite/CsGeBr3/4x4/550K/WC
 # Program compiled at                              Fri Sep 13 14:50:45 EDT 2019
 # Program compiled on                             slepner083.amarel.rutgers.edu
 # Program compiled for                                                    local
 # Source code revision number                                       git:e35496b
 &GLOBAL
   PRINT_LEVEL  LOW
   PROJECT_NAME CGB_WC
   RUN_TYPE  MD
   WALLTIME 47:58:00
 &END GLOBAL
 &MOTION
   &MD
     ENSEMBLE  NVT
     STEPS  5000
     TIMESTEP     9.9999999999999989E-01
     STEP_START_VAL  10187
     TIME_START_VAL     1.0186999999998885E+04
     ECONS_START_VAL    -4.1284717054172052E+03
     TEMPERATURE     5.5000000000000000E+02
     COMVEL_TOL     1.0000000000000000E-08
     &THERMOSTAT
       TYPE  CSVR
       &CSVR
         TIMECON     9.9999999999999986E+01
         &THERMOSTAT_ENERGY
              -7.3834827471857689E-01
         &END THERMOSTAT_ENERGY
         &RNG_INIT
Wiener process for Thermostat # 1        1 F T F  -3.7277392182891811E-01        4016278803.0        2861269224.0        2121827427.0        2276652422.0        1700192615.0         275364535.0             12345.0             12345.0             12345.0             12345.0             12345.0             12345.0             12345.0             12345.0             12345.0             12345.0             12345.0             12345.0
         &END RNG_INIT
       &END CSVR
     &END THERMOSTAT
     &AVERAGES  T
       &RESTART_AVERAGES
         ITIMES_START  1
         AVECPU     1.4852257796804173E+02
         AVEHUGONIOT     0.0000000000000000E+00
         AVETEMP_BARO     0.0000000000000000E+00
         AVEPOT    -4.1285259805878586E+03
         AVEKIN     8.3335880775425775E-01
         AVETEMP     5.4995524366858012E+02
         AVEKIN_QM     0.0000000000000000E+00
         AVETEMP_QM     0.0000000000000000E+00
         AVEVOL     7.6368394055423283E+04
         AVECELL_A     4.2426566442310715E+01
         AVECELL_B     4.2426566442310715E+01
         AVECELL_C     4.2426566442310715E+01
         AVEALPHA     9.0000000000000000E+01
         AVEBETA     9.0000000000000000E+01
         AVEGAMMA     9.0000000000000000E+01
         AVE_ECONS    -1.0417361182478253E+00
         AVE_PRESS     0.0000000000000000E+00
         AVE_PXX     0.0000000000000000E+00
       &END RESTART_AVERAGES
     &END AVERAGES
   &END MD
   &PRINT
     &TRAJECTORY  SILENT
       &EACH
         MD  1
       &END EACH
     &END TRAJECTORY
     &VELOCITIES  SILENT
       &EACH
         MD  1
       &END EACH
     &END VELOCITIES
     &FORCES  SILENT
       &EACH
         MD  1
       &END EACH
     &END FORCES
     &STRESS  SILENT
       &EACH
         MD  1
       &END EACH
     &END STRESS
     &RESTART  SILENT
       BACKUP_COPIES  3
       &EACH
         MD  1
       &END EACH
     &END RESTART
     &RESTART_HISTORY  SILENT
       &EACH
         MD  5
       &END EACH
     &END RESTART_HISTORY
   &END PRINT
 &END MOTION
 &FORCE_EVAL
   METHOD  QS
   &DFT
     BASIS_SET_FILE_NAME BASIS_MOLOPT
     POTENTIAL_FILE_NAME GTH_POTENTIALS
     MULTIPLICITY  1
     CHARGE  0
     &SCF
       MAX_SCF  30
       EPS_SCF     1.0000000000000001E-05
       SCF_GUESS  ATOMIC
       &OT  T
         MINIMIZER  DIIS
         PRECONDITIONER  FULL_SINGLE_INVERSE
       &END OT
       &OUTER_SCF  T
         EPS_SCF     1.0000000000000001E-05
         MAX_SCF  10
       &END OUTER_SCF
       &PRINT
         &RESTART  OFF
         &END RESTART
       &END PRINT
     &END SCF
     &QS
       EPS_DEFAULT     1.0000000000000000E-10
       EXTRAPOLATION  ASPC
       METHOD  GPW
     &END QS
     &MGRID
       NGRIDS  4
       CUTOFF     6.0000000000000000E+02
       REL_CUTOFF     8.0000000000000000E+01
     &END MGRID
     &XC
       DENSITY_CUTOFF     1.0000000000000000E-10
       GRADIENT_CUTOFF     1.0000000000000000E-10
       TAU_CUTOFF     1.0000000000000000E-10
       &XC_FUNCTIONAL  NO_SHORTCUT
         &PBE  T
         &END PBE
       &END XC_FUNCTIONAL
     &END XC
     &POISSON
       PERIODIC  XYZ
     &END POISSON
     &LOCALIZE  T
       USE_HISTORY  T
       EPS_LOCALIZATION     1.0000000000000001E-05
       METHOD  JACOBI
       &PRINT
         &WANNIER_CENTERS  SILENT
           IONS+CENTERS  T
         &END WANNIER_CENTERS
         &WANNIER_SPREADS  SILENT
         &END WANNIER_SPREADS
       &END PRINT
     &END LOCALIZE
     &REAL_TIME_PROPAGATION
       INITIAL_WFN  SCF_WFN
     &END REAL_TIME_PROPAGATION
     &PRINT
       &MO_CUBES  SILENT
         WRITE_CUBE  F
         NLUMO  4
         NHOMO  4
         &EACH
           MD  10
         &END EACH
       &END MO_CUBES
       &E_DENSITY_CUBE  OFF
       &END E_DENSITY_CUBE
     &END PRINT
   &END DFT
   &SUBSYS
     &CELL
       A     2.2451172000000000E+01    0.0000000000000000E+00    0.0000000000000000E+00
       B     0.0000000000000000E+00    2.2451172000000000E+01    0.0000000000000000E+00
       C     0.0000000000000000E+00    0.0000000000000000E+00    2.2451172000000000E+01
       MULTIPLE_UNIT_CELL  1 1 1
     &END CELL
     &COORD
Cs   -2.4237867140469902E-03    1.0050604713852251E-02   -1.8805326965570770E-02
Ge    1.1255176837763364E-01    1.4597613996931760E-01    1.3136535993590459E-01
Br    1.1390445957092596E-01    1.3961950248297145E-01    1.2835953561734033E-02
Br    1.1164226191894318E-01    2.0026674170322907E-03    1.1960246675717731E-01
Br   -9.1257973262858054E-03    1.1305178217564379E-01    1.1477265951830537E-01
Cs    2.4237405161127978E-01   -1.2841436979805941E-03    2.1326088651695612E-03
Ge    3.6629162981622676E-01    1.2039062875261929E-01    1.2563087865524591E-01
Br    3.4919993094573193E-01    1.0187977115954183E-01    1.2070586402543068E-02
Br    3.7969734781680964E-01    4.0848664717383614E-03    1.2714741710311134E-01
Br    2.5063411764931787E-01    1.2772001754996778E-01    1.3583396069636405E-01
Cs    4.9469337862029905E-01    4.9358924633092415E-03    1.4466602111821995E-02
Ge    6.2002959761373977E-01    1.2721906904353214E-01    1.1830946158649010E-01
Br    6.4374741386348755E-01    1.1488948560689016E-01   -6.6338462965014782E-04
Br    6.3070519620442611E-01    6.9172121455440046E-03    1.4017469813013209E-01
Br    5.0083345697269266E-01    1.3801633345797037E-01    1.0267064984212945E-01
Cs    7.5375780661770098E-01   -1.1173854016151664E-02   -5.7189550536977931E-03
Ge    8.6207466137817079E-01    1.2855953684907431E-01    1.0746234167969505E-01
Br    8.4266479176266540E-01    1.1031985500230457E-01   -6.5177021145855921E-03
Br    8.8354045071951648E-01   -2.3878958224131503E-03    1.1338662281791373E-01
Br    7.5284267517817216E-01    1.4881754908518668E-01    1.3858048152624902E-01
Cs   -9.7317203970631128E-04    2.5573246907938590E-01    4.1792514542494871E-03
Ge    1.2944853634717624E-01    3.8227498990981046E-01    1.3812073428563990E-01
Br    1.1597199177131000E-01    3.9495790331310637E-01    1.0670864928212075E-02
Br    1.3104158538364094E-01    2.5832596302347149E-01    1.2375783127732164E-01
Br    4.0174236552554464E-04    3.7167826896191547E-01    1.2653328663435204E-01
Cs    2.5637871861634520E-01    2.6005965204435988E-01    1.2259012196318541E-02
Ge    3.7666408750204428E-01    3.7340520277335781E-01    1.1718383267694776E-01
Br    3.7889857538940575E-01    3.9852861827399122E-01   -1.7590830515214380E-03
Br    3.6029793848067559E-01    2.5044897779973996E-01    1.2433975680013491E-01
Br    2.4815749944768781E-01    3.7332492389110516E-01    1.3532778477773827E-01
Cs    5.3972939792578423E-01    2.4618276509395964E-01   -1.8960972870745607E-02
Ge    6.3255563728614927E-01    3.7833287387437403E-01    1.1526226332820659E-01
Br    6.4459851999229945E-01    3.7435545478298032E-01   -3.9834437861830021E-03
Br    6.1492969873685333E-01    2.4501457653541087E-01    1.2806393511079939E-01
Br    4.9334906449492572E-01    3.7013872933659825E-01    1.1571903722048099E-01
Cs    7.6634922596192057E-01    2.7505728746211899E-01    6.5592473536799194E-03
Ge    8.8588188374034815E-01    3.7559185279359714E-01    1.3112772805047604E-01
Br    8.7500167844935972E-01    3.8891050326897919E-01   -1.4892887945090217E-02
Br    8.8443061278022006E-01    2.5187881750211977E-01    1.1689985482913903E-01
Br    7.4550890243044765E-01    3.9355965402615656E-01    1.3147926465806106E-01
Cs    9.1051989117135936E-03    5.1252981158060318E-01   -1.9860132184893634E-02
Ge    1.3019809292810955E-01    6.3345380944506335E-01    1.3130992822621249E-01
Br    1.2548982553128654E-01    6.1942382618545300E-01   -1.3752664148698173E-03
Br    1.3610931409383009E-01    5.0479890406705596E-01    1.3984338364165394E-01
Br    1.1252640949442260E-03    6.2974096649430167E-01    1.3105488158007650E-01
Cs    2.4090176382242148E-01    4.8291047341312504E-01   -1.4212888874858981E-03
Ge    3.7454303338119688E-01    6.2620180038127959E-01    1.4632118037117803E-01
Br    4.1455816549721403E-01    6.2350457833544748E-01   -9.0473359587012019E-03
Br    3.5735631774359794E-01    4.9174461131652225E-01    1.2978512672840725E-01
Br    2.4901784216300343E-01    6.2765844838590445E-01    1.1878622212156092E-01
Cs    5.0045458389464614E-01    4.8355343842876480E-01   -1.3398893576997570E-02
Ge    6.1155585238961929E-01    6.3655400446451205E-01    1.1562031643169567E-01
Br    6.0734098198733522E-01    6.1291592052105259E-01   -2.3026584114814634E-03
Br    6.1104629511987663E-01    5.0242651096373947E-01    1.1125846604906811E-01
Br    4.8905899826796628E-01    6.1295449499180055E-01    1.5073439964156612E-01
Cs    7.6571150104998542E-01    5.0724514748039662E-01    9.0538351202910320E-03
Ge    8.8057297075430496E-01    6.2304601152192629E-01    1.1316529679936409E-01
Br    8.6408411396235496E-01    6.2143888697404026E-01   -2.7997440238509705E-03
Br    8.9260363559813771E-01    5.0711890212823185E-01    1.2737019491643095E-01
Br    7.3076395866321442E-01    6.2429412256466743E-01    1.1327182808887126E-01
Cs   -6.6042121020741694E-03    7.3706370762737616E-01    1.0284488932567849E-02
Ge    1.1561807689563314E-01    8.7680351943756407E-01    1.1684639180047014E-01
Br    1.1448856193549441E-01    8.7992374420247577E-01    5.9852979181965497E-03
Br    1.1731783378445670E-01    7.4758947521942820E-01    1.0936742487581118E-01
Br   -1.8041235535727309E-02    8.8583506370918752E-01    1.4167552744918063E-01
Cs    2.4594725942993464E-01    7.5181480165843340E-01    1.2917592739151480E-02
Ge    3.7972738653138005E-01    8.6205930744163772E-01    1.2873790062758864E-01
Br    3.7825761510409683E-01    8.7803407408952860E-01    9.1098563032471231E-03
Br    3.5628868416101178E-01    7.4665688236254824E-01    1.1627194167279674E-01
Br    2.3772925099447628E-01    8.6721683970398677E-01    1.3155018798540710E-01
Cs    5.0638194836225614E-01    7.6772555535107634E-01    3.0467970540486163E-02
Ge    6.3660300372594869E-01    8.9536274799256010E-01    1.1809794286126282E-01
Br    6.3297522209851964E-01    9.0196211956462491E-01    5.1365141583596934E-03
Br    6.0711057234377397E-01    7.5098218861630672E-01    1.5046121054015893E-01
Br    4.9382258882713709E-01    8.5850232068827559E-01    1.3903671117246771E-01
Cs    7.5344642757935332E-01    7.5765376839612253E-01    1.3108475618264295E-03
Ge    8.7605890643611262E-01    8.7818447784892006E-01    1.0343563031990971E-01
Br    9.2126880590428639E-01    8.6902984969286112E-01   -3.3734936092466965E-03
Br    8.8343878757579775E-01    7.4821125745520756E-01    1.2390794979888012E-01
Br    7.4536748364962024E-01    8.5039783636674871E-01    1.3210673091684419E-01
Cs    2.6403874213650654E-02    5.9050415874569483E-03    2.4774608400280390E-01
Ge    1.3724522015316193E-01    1.2967707145965920E-01    3.9027409261514556E-01
Br    1.3478601473948640E-01    1.2668840354860350E-01    2.6487683057787403E-01
Br    1.2973542677398270E-01    1.0816269178046152E-02    3.9156884831113214E-01
Br    1.8755028536713253E-03    1.3182928425190543E-01    3.7951738258968992E-01
Cs    2.4301650437028033E-01    6.6679325268818868E-05    2.3246012412143308E-01
Ge    3.7912309231835251E-01    1.2874793934540937E-01    3.6539420687094920E-01
Br    3.6388653099011031E-01    1.5888744364252202E-01    2.5839505036532673E-01
Br    3.8083103264145579E-01    7.3464203469353921E-03    3.6208448553429812E-01
Br    2.5352838835357416E-01    1.2893059226176837E-01    3.9220655507485491E-01
Cs    5.0764748786529923E-01   -4.2512564988226066E-03    2.6557830735476656E-01
Ge    6.2647503093626600E-01    1.2740952876349618E-01    3.6652079945906940E-01
Br    6.2563058451103637E-01    1.1848170499591011E-01    2.5654479320939266E-01
Br    6.5023288890513808E-01   -1.3034731849336977E-02    3.6613180595173656E-01
Br    4.9565181935346059E-01    1.5147180751545344E-01    3.7458375752937800E-01
Cs    7.6691649664515715E-01   -6.6115498102815753E-04    2.4533043530626850E-01
Ge    8.9030320264447516E-01    1.3875917863773468E-01    3.6786777378846203E-01
Br    8.8198810102010106E-01    1.0868357107432539E-01    2.5139689473854637E-01
Br    8.6440838752060212E-01    1.2090284490801378E-02    3.8893422472637995E-01
Br    7.4794344876002883E-01    1.2220067028671674E-01    3.7334967455787432E-01
Cs   -2.4619705415094913E-03    2.6708756206456885E-01    2.6285087096386500E-01
Ge    1.3331050447065301E-01    3.8146124135603965E-01    3.8770333403177670E-01
Br    1.3411401739413797E-01    3.5974210180380783E-01    2.7396760461136344E-01
Br    1.4001643973364797E-01    2.6519198006800432E-01    4.0260429506640294E-01
Br    5.7807923763220975E-03    3.9074899678370795E-01    3.8750188980300487E-01
Cs    2.5170443542263393E-01    2.6481785239074612E-01    2.5208986116821758E-01
Ge    3.7245251613852648E-01    3.7268138265983031E-01    3.7523644712432808E-01
Br    3.5866246608609303E-01    3.8580076565654742E-01    2.5750411567164949E-01
Br    3.6660636492257864E-01    2.5967235233729941E-01    3.7616844270202388E-01
Br    2.5428661561826782E-01    3.9053462411879869E-01    4.0189732020690655E-01
Cs    4.9106483762179559E-01    2.4787940672054662E-01    2.1489268814291740E-01
Ge    6.0714493406910075E-01    3.7490574237477703E-01    3.7660778514983279E-01
Br    6.0067694329062815E-01    3.5278098760396631E-01    2.6729967149248690E-01
Br    6.3705024041664993E-01    2.4133442502162475E-01    3.7759879305808375E-01
Br    4.9141523547824351E-01    3.7778288465861654E-01    3.8835840217493817E-01
Cs    7.3070548049322714E-01    2.6436993969077732E-01    2.4859923764468778E-01
Ge    8.5567365918643890E-01    3.7992665879559723E-01    3.8138811781627896E-01
Br    8.8326513161642806E-01    3.9167621863591895E-01    2.4049256848172854E-01
Br    8.7202272569405681E-01    2.6147342621322528E-01    3.5766600736067383E-01
Br    7.4810785344909603E-01    3.8668690262739580E-01    3.5523887631327911E-01
Cs   -6.1940053735844046E-03    5.2210396973193507E-01    2.5737915126894567E-01
Ge    1.1760669114069050E-01    6.2376889597801088E-01    3.7521312776096205E-01
Br    1.4085992168693567E-01    6.4269883402591677E-01    2.4120560448494485E-01
Br    1.3383799253699358E-01    5.0499786880659692E-01    3.5605806611404794E-01
Br    3.6018499744960878E-03    6.4343890369896539E-01    3.6185757777186978E-01
Cs    2.5694301542167453E-01    5.0875895834785778E-01    2.5879348450904477E-01
Ge    3.7210720061873470E-01    6.1737663812935850E-01    3.8070178062816995E-01
Br    3.6062963326900310E-01    6.4353313125536349E-01    2.5578495169988119E-01
Br    3.8750192216180995E-01    5.0084653238512755E-01    3.7515852565887070E-01
Br    2.5622578137250929E-01    6.3112431170893579E-01    3.8595547982740847E-01
Cs    5.0786155645492781E-01    4.8705440104660608E-01    2.4067244809214347E-01
Ge    6.1643145310112057E-01    6.3555987211600529E-01    3.6849843724815468E-01
Br    6.2217776040687089E-01    6.1601797162132976E-01    2.4255443693356532E-01
Br    6.1777624346714310E-01    4.8821714221642620E-01    3.7644292633618776E-01
Br    5.0057413972169085E-01    6.3995358849347550E-01    3.8997431853171288E-01
Cs    7.4222191009539318E-01    5.1354035576114665E-01    2.4928466875879698E-01
Ge    8.7201800772999849E-01    6.2336176114807085E-01    3.6774848581934466E-01
Br    8.6616178012939438E-01    6.2589237642582229E-01    2.4912609767789246E-01
Br    8.7083226487322940E-01    5.0705361270962745E-01    3.8086906589038771E-01
Br    7.4817749353698371E-01    6.1898159490762583E-01    3.8343787931597512E-01
Cs   -1.0442697958144060E-02    7.4182759867668757E-01    2.5041050580311003E-01
Ge    1.2088049824325725E-01    8.6965972997773100E-01    3.6855188636416086E-01
Br    1.3651892989755759E-01    8.8234780756315478E-01    2.5428983502860902E-01
Br    1.3035932034207259E-01    7.6578635730095768E-01    3.7386941421062764E-01
Br   -1.0077261579155176E-02    8.8752474619937793E-01    3.5927639382673310E-01
Cs    2.5929985405821210E-01    7.6093655151252881E-01    2.4677296825476053E-01
Ge    3.8265349899154977E-01    8.8247912057989064E-01    3.8334273516778133E-01
Br    3.7913678007145879E-01    8.8031947100524210E-01    2.5652920344573404E-01
Br    3.8272194042578639E-01    7.6701957605277871E-01    3.8817745876522908E-01
Br    2.4921138539141419E-01    8.7147310937635925E-01    3.7791669548602008E-01
Cs    5.0221580386701536E-01    7.6076465129630078E-01    2.6617986336064337E-01
Ge    6.3668041059701885E-01    8.7954678605433378E-01    3.6140246375220336E-01
Br    6.1316288058855228E-01    8.7866786763870430E-01    2.4840887355645805E-01
Br    6.1750997434057264E-01    7.5170418153225538E-01    3.6998265561351895E-01
Br    5.0883646790848236E-01    8.8031277584972722E-01    3.9546302109124282E-01
Cs    7.5905960340073475E-01    7.2910710322304106E-01    2.5503044442290862E-01
Ge    8.7504172694202331E-01    8.8412660713740909E-01    3.5837944227729651E-01
Br    8.5385027579206874E-01    8.6062499393257919E-01    2.4562420946385033E-01
Br    8.6638273400004384E-01    7.5817645573449555E-01    3.6742516834498767E-01
Br    7.5405925053764133E-01    8.7925721724483730E-01    3.7346381590239058E-01
Cs   -1.2258405460322832E-02   -1.5091914204238064E-02    4.8749407602859446E-01
Ge    1.2459279422172935E-01    1.1313294740733786E-01    6.1644842693619406E-01
Br    1.0609619637399677E-01    8.6704510432396922E-02    5.0713345260039733E-01
Br    1.4255963107557221E-01   -5.7349203117023073E-03    6.5063818248086192E-01
Br    6.5351352491866167E-03    1.2466318583769535E-01    6.2753259786187210E-01
Cs    2.4974737697814833E-01   -2.4505013089043382E-03    5.1359228339584484E-01
Ge    3.7826860709055776E-01    1.2335009979671932E-01    6.1504540474239244E-01
Br    3.9313874686158912E-01    1.2264485028720754E-01    5.0511955354789029E-01
Br    3.8119616888061647E-01    3.0888354194774808E-03    6.3422023376177661E-01
Br    2.3568817579016851E-01    1.2649454996717896E-01    6.0259445311652748E-01
Cs    5.0291504160154055E-01   -3.9194546246863670E-03    5.1649174264515563E-01
Ge    6.2526017727578309E-01    1.1096283781915216E-01    6.2432376463689065E-01
Br    6.1336017045483782E-01    1.1497846404352505E-01    5.0692461836544600E-01
Br    6.2130751981511789E-01   -4.1309213385813982E-03    6.3277158792399424E-01
Br    4.8738787321514310E-01    1.2442577002032784E-01    6.5083723072092892E-01
Cs    7.4397132177335801E-01   -8.0137249341668739E-03    4.9979505692228904E-01
Ge    8.7821799713461335E-01    1.2075130199510463E-01    6.1266512058436651E-01
Br    8.9347915599648553E-01    1.4678714773183404E-01    5.0117347742383334E-01
Br    8.7860454995156589E-01   -8.8581213834192547E-03    6.0887606107309244E-01
Br    7.4376649637309522E-01    1.1573968778911706E-01    6.1484513261410079E-01
Cs   -1.2135377092018630E-02    2.8145817740443757E-01    5.0321241057569999E-01
Ge    1.2160991329975843E-01    3.7162169336429546E-01    6.2983640630280568E-01
Br    1.1914048477054504E-01    4.0506165889035184E-01    5.1761780760880638E-01
Br    1.1966875680845097E-01    2.5055237855075924E-01    6.1885855190468875E-01
Br   -7.1050082188531183E-03    3.5970808263658721E-01    6.4010714971714655E-01
Cs    2.5527363742243975E-01    2.5558192452221651E-01    5.0155878500741424E-01
Ge    3.7651741675826034E-01    3.6485954237747847E-01    6.1919904626279376E-01
Br    3.6981725637360513E-01    3.6660957208884332E-01    5.0458215313956922E-01
Br    3.7216308436556428E-01    2.5635748015602661E-01    6.3059024152932586E-01
Br    2.5893724201571372E-01    3.7075098958956776E-01    6.3122927621145286E-01
Cs    4.9622767759860248E-01    2.3417137640164923E-01    5.1425580624417266E-01
Ge    6.2922510359463668E-01    3.6356162953133436E-01    6.2964389294110912E-01
Br    6.0087989580268619E-01    3.8718006854437370E-01    5.1555045082666162E-01
Br    6.2531353007659574E-01    2.4743410804009897E-01    6.2346797970800094E-01
Br    5.0623072568474548E-01    3.5185866043200881E-01    6.4368366161772550E-01
Cs    7.3811328276746624E-01    2.1858534397326662E-01    4.9994819262984042E-01
Ge    8.6852166650146700E-01    3.7237628880439549E-01    6.2343201234134471E-01
Br    8.5860107196589797E-01    3.6647620071074644E-01    4.8932552919341915E-01
Br    8.6500111455028739E-01    2.3402487640444844E-01    6.3892824129014780E-01
Br    7.4075559656796708E-01    3.6450746503100229E-01    6.2035842475368608E-01
Cs    3.4666828834039841E-03    5.0676666267619741E-01    5.1598415929367569E-01
Ge    1.2188571708820396E-01    6.1234912208259573E-01    6.3008492707009689E-01
Br    1.0161838191612133E-01    6.2329389022616710E-01    4.9612963217426159E-01
Br    1.1948034294178947E-01    5.0129749790633316E-01    6.6069283698709291E-01
Br   -6.8240169381640573E-03    6.2807274001355795E-01    6.1921705624586798E-01
Cs    2.5679119201657441E-01    5.1537094194782185E-01    4.9882116232869067E-01
Ge    3.8145829799254755E-01    6.1404853386930480E-01    6.1636955786424930E-01
Br    3.7767257516552022E-01    6.2029586634574241E-01    4.9620599264691506E-01
Br    3.8516164022981003E-01    5.0327374642368350E-01    6.3309455669702930E-01
Br    2.4101390329937084E-01    6.4935442990674797E-01    6.1037595612465456E-01
Cs    4.8224541110897601E-01    5.0506184494933060E-01    4.9670435085777670E-01
Ge    6.3107538819043618E-01    6.1182561275738978E-01    6.1092593161746045E-01
Br    6.1722815214142823E-01    6.3347195935452227E-01    5.0096228762171868E-01
Br    6.3812010051785117E-01    4.9358234179614996E-01    6.1548478741358204E-01
Br    4.9630456345767476E-01    6.1531570750718889E-01    6.3935801422324823E-01
Cs    7.4835535719239010E-01    4.9859063141934379E-01    4.9914899999894835E-01
Ge    8.7754600313754372E-01    6.2425228697654200E-01    6.0970120788841631E-01
Br    8.9595482297215134E-01    6.4061149006315632E-01    4.9348388808199484E-01
Br    8.6987025552492014E-01    4.9839099062673414E-01    5.9724181410723565E-01
Br    7.5115255344631915E-01    6.1928268744131609E-01    6.1568578349095260E-01
Cs   -7.4108185131148349E-03    7.6739906787658563E-01    4.9042753098475911E-01
Ge    1.1546086849550966E-01    8.7274246305739356E-01    6.2241461168342138E-01
Br    1.2632806138335523E-01    8.8169276919583817E-01    4.9888511164798910E-01
Br    9.8818265423117016E-02    7.4999746758852737E-01    6.2652167569962458E-01
Br    8.8977223108609328E-03    8.9189061597070052E-01    6.5377048540226268E-01
Cs    2.5612245222686475E-01    7.6064754093321330E-01    4.8441542500570262E-01
Ge    3.6822829407505098E-01    8.5211374577058707E-01    6.1489474030847657E-01
Br    3.8798160034176271E-01    8.7669588688690259E-01    5.0464836925616252E-01
Br    4.0347692639480337E-01    7.4300624129439086E-01    6.1706432024771962E-01
Br    2.5826737910832975E-01    8.5970442629699440E-01    5.9567452880836347E-01
Cs    5.0702773769731724E-01    7.4592069935285499E-01    4.9243147309501428E-01
Ge    6.1547852002128756E-01    8.7005670421300341E-01    6.1207400721650684E-01
Br    6.3282512063085750E-01    8.7147776787344533E-01    4.9359929250995266E-01
Br    6.1755207413586299E-01    7.5061353120150820E-01    6.0508237644876983E-01
Br    5.0249432173179565E-01    8.7748399443845315E-01    6.2847938247804358E-01
Cs    7.5214919679885495E-01    7.5308176368262736E-01    5.0644770946186968E-01
Ge    8.6300144928356981E-01    8.8327668564668360E-01    6.1120338752795622E-01
Br    8.6571217481301843E-01    8.6776212045577350E-01    5.0255478435755097E-01
Br    8.7270246394554607E-01    7.4961983594830273E-01    6.2352922497568508E-01
Br    7.4824693316315638E-01    8.8435363141758716E-01    6.1155912704786730E-01
Cs   -4.9276102374222952E-03    1.6691075366314591E-03    7.4574789829973531E-01
Ge    1.3283207723121759E-01    1.1559727619673595E-01    8.7875086268537173E-01
Br    1.3771354527550883E-01    1.2921794540487799E-01    7.6087585338729480E-01
Br    1.5019322510454072E-01   -3.3856365056431233E-03    8.5254194345740408E-01
Br   -1.5352161666775999E-03    1.2838864742750611E-01    8.7710464663583843E-01
Cs    2.6579246332115936E-01    7.8982013709522070E-03    7.4429804826362844E-01
Ge    3.7426877154268107E-01    1.3715713830554865E-01    8.7992251599004556E-01
Br    3.8307468167842629E-01    1.3503836518380785E-01    7.6033572106652880E-01
Br    3.6156396974867921E-01   -2.4538456148667370E-02    8.7950292176579359E-01
Br    2.5762737878458924E-01    1.2024988036002057E-01    8.6919917900477917E-01
Cs    4.9217133790472134E-01    9.0878144595289770E-03    7.6003296425503231E-01
Ge    6.1923626182096159E-01    1.1187821079709345E-01    8.6374428817208526E-01
Br    6.0716702966926528E-01    1.1750869291296531E-01    7.5406638876097165E-01
Br    6.2296175939941423E-01    1.4968001972102429E-03    8.6557037508666890E-01
Br    5.0529663997672680E-01    1.2637945727183464E-01    9.0270620408154245E-01
Cs    7.4543007824665142E-01   -2.8545894988374152E-02    7.4964301124658606E-01
Ge    8.7242512598196920E-01    1.2541468852699894E-01    8.6080142521202230E-01
Br    8.7254866925102315E-01    1.0881015965976555E-01    7.5151395734885162E-01
Br    8.9020262174815179E-01   -8.2455931373227893E-03    8.7053154629332585E-01
Br    7.4079547874607821E-01    1.2272869139581236E-01    8.6003454306926130E-01
Cs    1.2030522057695286E-02    2.3183922678187588E-01    7.4977430194709860E-01
Ge    1.2726673604645744E-01    3.8054261939945538E-01    8.8383688284644346E-01
Br    1.4146780766072783E-01    3.3918059892841279E-01    7.5979796797869192E-01
Br    1.3221535493974565E-01    2.3551616128717115E-01    8.7555823468658867E-01
Br    1.1049921360692697E-02    3.9713306175873114E-01    8.7624371685076019E-01
Cs    2.4733761505923771E-01    2.3481181499845269E-01    7.4764762442200250E-01
Ge    3.6731676466409402E-01    3.8743718912411818E-01    8.6583877730835102E-01
Br    3.8067753417904848E-01    3.5521824376193273E-01    7.4804758475297761E-01
Br    3.8112511018046247E-01    2.4369682538939857E-01    9.1271490329140592E-01
Br    2.5300841120010154E-01    3.6617174954181264E-01    8.8369518089742882E-01
Cs    4.9831434080139747E-01    2.4168576574987047E-01    7.5770227682793823E-01
Ge    6.2671628088510101E-01    3.7131102897010643E-01    8.5849198846523078E-01
Br    6.3287041618509132E-01    3.6590728327348432E-01    7.4532841179346421E-01
Br    6.3918449585026405E-01    2.5936375251717109E-01    8.5667734195716827E-01
Br    5.0654071010310664E-01    3.6906380165778596E-01    8.6153119887308705E-01
Cs    7.5051936052263690E-01    2.5321694252591503E-01    7.4866885893440549E-01
Ge    8.7215263119239395E-01    3.8150635268538707E-01    8.6543976406278533E-01
Br    8.6506203776456159E-01    3.8842482565820791E-01    7.3532135444441149E-01
Br    8.6139001119090652E-01    2.5371996473715958E-01    8.6126185330293814E-01
Br    7.6305694620873243E-01    3.9248867801881715E-01    8.8560716277160356E-01
Cs    5.3119811726843819E-03    5.0220138867082942E-01    7.7489467276551793E-01
Ge    1.3905106885800811E-01    6.3408096593840813E-01    8.7475747621454725E-01
Br    1.0047964325852106E-01    6.2965007224191916E-01    7.5025649234859437E-01
Br    1.4119350227358754E-01    5.0281343326223527E-01    8.8241437982191095E-01
Br   -9.1780669386350988E-03    6.2151082028448668E-01    8.7322328413635530E-01
Cs    2.5071449820928693E-01    4.6887105314239452E-01    7.5551283864363772E-01
Ge    3.9967787316519771E-01    6.3100976269686115E-01    8.8295366985913126E-01
Br    3.5934663630256330E-01    6.3333459608550313E-01    7.3850919041743956E-01
Br    3.8723776734648707E-01    4.8938174536402779E-01    8.4664335802974078E-01
Br    2.4466624202545731E-01    6.2735316183377066E-01    8.5612157065514694E-01
Cs    5.0494858398158959E-01    4.6489564407465944E-01    7.3131494108024320E-01
Ge    6.2935918629211318E-01    6.1665917333410702E-01    8.5705241648839525E-01
Br    6.2438824582948038E-01    6.4444303803136127E-01    7.4636165672552757E-01
Br    6.2262877581796827E-01    4.9264764634120345E-01    8.4523226308642518E-01
Br    5.0158948716226570E-01    5.9515509361280183E-01    8.6455919654704538E-01
Cs    7.3722491147936453E-01    5.1492020826284168E-01    7.3960192148899029E-01
Ge    8.7587923102963661E-01    6.2599792920836728E-01    8.6015204001215317E-01
Br    8.6352781190667915E-01    6.4910213299597297E-01    7.3531379755026516E-01
Br    8.7089620103496990E-01    5.0145844305863707E-01    8.6393362602555956E-01
Br    7.4167814031663748E-01    6.1531388338242510E-01    8.6912192473879235E-01
Cs   -1.1942541977159410E-02    7.4005626218500453E-01    7.5352719412835556E-01
Ge    1.5036614145932239E-01    8.6594202423027333E-01    8.6227811270653776E-01
Br    1.4678169508196418E-01    8.3910035427081930E-01    7.5232628730850426E-01
Br    1.1768032493998209E-01    7.5350875089283642E-01    8.8617214356011575E-01
Br   -3.7024284868389938E-03    8.5436223171568504E-01    8.5206122623582881E-01