 # Version information for this restart file 
 # current date 2021-09-13 18:39:23.352
 # current working dir /projectsp/f_rcr78_1/MW/Hybrid_Perovskite/CsGeBr3/4x4/550K/WC
 # Program compiled at                              Fri Sep 13 14:50:45 EDT 2019
 # Program compiled on                             slepner083.amarel.rutgers.edu
 # Program compiled for                                                    local
 # Source code revision number                                       git:e35496b
 &GLOBAL
   PRINT_LEVEL  LOW
   PROJECT_NAME CGB_WC
   RUN_TYPE  MD
   WALLTIME 47:58:00
 &END GLOBAL
 &MOTION
   &MD
     ENSEMBLE  NVT
     STEPS  5000
     TIMESTEP     9.9999999999999989E-01
     STEP_START_VAL  10188
     TIME_START_VAL     1.0187999999998885E+04
     ECONS_START_VAL    -4.1284717054172052E+03
     TEMPERATURE     5.5000000000000000E+02
     COMVEL_TOL     1.0000000000000000E-08
     &THERMOSTAT
       TYPE  CSVR
       &CSVR
         TIMECON     9.9999999999999986E+01
         &THERMOSTAT_ENERGY
              -7.2708034476595762E-01
         &END THERMOSTAT_ENERGY
         &RNG_INIT
Wiener process for Thermostat # 1        1 F T F   2.2795623672980539E-01        1502272297.0        1424469749.0        2667054427.0        2917411363.0        2511894527.0        2790058635.0             12345.0             12345.0             12345.0             12345.0             12345.0             12345.0             12345.0             12345.0             12345.0             12345.0             12345.0             12345.0
         &END RNG_INIT
       &END CSVR
     &END THERMOSTAT
     &AVERAGES  T
       &RESTART_AVERAGES
         ITIMES_START  1
         AVECPU     1.4867215375676832E+02
         AVEHUGONIOT     0.0000000000000000E+00
         AVETEMP_BARO     0.0000000000000000E+00
         AVEPOT    -4.1285259796005239E+03
         AVEKIN     8.3335235525967855E-01
         AVETEMP     5.4995098549887518E+02
         AVEKIN_QM     0.0000000000000000E+00
         AVETEMP_QM     0.0000000000000000E+00
         AVEVOL     7.6368394055423283E+04
         AVECELL_A     4.2426566442310715E+01
         AVECELL_B     4.2426566442310715E+01
         AVECELL_C     4.2426566442310715E+01
         AVEALPHA     9.0000000000000000E+01
         AVEBETA     9.0000000000000000E+01
         AVEGAMMA     9.0000000000000000E+01
         AVE_ECONS    -1.0419898953153162E+00
         AVE_PRESS     0.0000000000000000E+00
         AVE_PXX     0.0000000000000000E+00
       &END RESTART_AVERAGES
     &END AVERAGES
   &END MD
   &PRINT
     &TRAJECTORY  SILENT
       &EACH
         MD  1
       &END EACH
     &END TRAJECTORY
     &VELOCITIES  SILENT
       &EACH
         MD  1
       &END EACH
     &END VELOCITIES
     &FORCES  SILENT
       &EACH
         MD  1
       &END EACH
     &END FORCES
     &STRESS  SILENT
       &EACH
         MD  1
       &END EACH
     &END STRESS
     &RESTART  SILENT
       BACKUP_COPIES  3
       &EACH
         MD  1
       &END EACH
     &END RESTART
     &RESTART_HISTORY  SILENT
       &EACH
         MD  5
       &END EACH
     &END RESTART_HISTORY
   &END PRINT
 &END MOTION
 &FORCE_EVAL
   METHOD  QS
   &DFT
     BASIS_SET_FILE_NAME BASIS_MOLOPT
     POTENTIAL_FILE_NAME GTH_POTENTIALS
     MULTIPLICITY  1
     CHARGE  0
     &SCF
       MAX_SCF  30
       EPS_SCF     1.0000000000000001E-05
       SCF_GUESS  ATOMIC
       &OT  T
         MINIMIZER  DIIS
         PRECONDITIONER  FULL_SINGLE_INVERSE
       &END OT
       &OUTER_SCF  T
         EPS_SCF     1.0000000000000001E-05
         MAX_SCF  10
       &END OUTER_SCF
       &PRINT
         &RESTART  OFF
         &END RESTART
       &END PRINT
     &END SCF
     &QS
       EPS_DEFAULT     1.0000000000000000E-10
       EXTRAPOLATION  ASPC
       METHOD  GPW
     &END QS
     &MGRID
       NGRIDS  4
       CUTOFF     6.0000000000000000E+02
       REL_CUTOFF     8.0000000000000000E+01
     &END MGRID
     &XC
       DENSITY_CUTOFF     1.0000000000000000E-10
       GRADIENT_CUTOFF     1.0000000000000000E-10
       TAU_CUTOFF     1.0000000000000000E-10
       &XC_FUNCTIONAL  NO_SHORTCUT
         &PBE  T
         &END PBE
       &END XC_FUNCTIONAL
     &END XC
     &POISSON
       PERIODIC  XYZ
     &END POISSON
     &LOCALIZE  T
       USE_HISTORY  T
       EPS_LOCALIZATION     1.0000000000000001E-05
       METHOD  JACOBI
       &PRINT
         &WANNIER_CENTERS  SILENT
           IONS+CENTERS  T
         &END WANNIER_CENTERS
         &WANNIER_SPREADS  SILENT
         &END WANNIER_SPREADS
       &END PRINT
     &END LOCALIZE
     &REAL_TIME_PROPAGATION
       INITIAL_WFN  SCF_WFN
     &END REAL_TIME_PROPAGATION
     &PRINT
       &MO_CUBES  SILENT
         WRITE_CUBE  F
         NLUMO  4
         NHOMO  4
         &EACH
           MD  10
         &END EACH
       &END MO_CUBES
       &E_DENSITY_CUBE  OFF
       &END E_DENSITY_CUBE
     &END PRINT
   &END DFT
   &SUBSYS
     &CELL
       A     2.2451172000000000E+01    0.0000000000000000E+00    0.0000000000000000E+00
       B     0.0000000000000000E+00    2.2451172000000000E+01    0.0000000000000000E+00
       C     0.0000000000000000E+00    0.0000000000000000E+00    2.2451172000000000E+01
       MULTIPLE_UNIT_CELL  1 1 1
     &END CELL
     &COORD
Cs   -2.4612998872461061E-03    1.0059275536735876E-02   -1.8850284171389457E-02
Ge    1.1262405564691788E-01    1.4609640702096979E-01    1.3133666254908574E-01
Br    1.1408266448176102E-01    1.3968002223266868E-01    1.2700024186149400E-02
Br    1.1168468912758905E-01    2.2238959819800828E-03    1.1947595606273249E-01
Br   -9.2082434557250129E-03    1.1295972849029466E-01    1.1475209056158833E-01
Cs    2.4229193537271393E-01   -1.1712863803611030E-03    2.0710760979258339E-03
Ge    3.6619667031479697E-01    1.2036013222010539E-01    1.2572668469100828E-01
Br    3.4929294271244765E-01    1.0188324247325156E-01    1.2101142111149543E-02
Br    3.7957110289398227E-01    4.0559373370769461E-03    1.2720478261993190E-01
Br    2.5075589890414307E-01    1.2775772956802908E-01    1.3606857015979160E-01
Cs    4.9474165470032772E-01    4.9592275952283493E-03    1.4648433574978898E-02
Ge    6.2009833656946833E-01    1.2719284841814602E-01    1.1850399461485270E-01
Br    6.4379276508042660E-01    1.1477568732120504E-01   -7.5433001558119941E-04
Br    6.3088899959837186E-01    6.6623991384072608E-03    1.4006897255950451E-01
Br    5.0105300221181992E-01    1.3805844317102839E-01    1.0276543627622893E-01
Cs    7.5362892134256509E-01   -1.1112720558664196E-02   -5.5277586661984894E-03
Ge    8.6209046213672658E-01    1.2867505403187249E-01    1.0744263090520080E-01
Br    8.4265594951814971E-01    1.1031752377579793E-01   -6.4760259361825688E-03
Br    8.8368389071941877E-01   -2.5216727649827728E-03    1.1341366329736260E-01
Br    7.5282874216652196E-01    1.4894828979088118E-01    1.3846557928170972E-01
Cs   -1.0146455572595579E-03    2.5583194677479543E-01    4.0901444667660516E-03
Ge    1.2936994078975275E-01    3.8206989324550283E-01    1.3818475223316865E-01
Br    1.1605572803743443E-01    3.9472500655653164E-01    1.0670831487618099E-02
Br    1.3124114675850834E-01    2.5837295774831326E-01    1.2381710716726976E-01
Br    6.6416485394183995E-04    3.7180156067738307E-01    1.2648874817492964E-01
Cs    2.5635703919216352E-01    2.6010197081399494E-01    1.2099944703226388E-02
Ge    3.7658600343506304E-01    3.7335601384365258E-01    1.1717599458432230E-01
Br    3.7874613447759581E-01    3.9858599718608090E-01   -1.6861763905794505E-03
Br    3.6033784778579953E-01    2.5049588803851364E-01    1.2418653575775597E-01
Br    2.4817868935380683E-01    3.7340272753269615E-01    1.3530460838887740E-01
Cs    5.3997722237645207E-01    2.4624981110486158E-01   -1.9063763934740081E-02
Ge    6.3253658366940757E-01    3.7811758657225808E-01    1.1516570826832224E-01
Br    6.4465815860708442E-01    3.7439687158093510E-01   -4.0606896842159991E-03
Br    6.1499171696344002E-01    2.4511870380472353E-01    1.2803894932901827E-01
Br    4.9330746638505996E-01    3.7021737051253717E-01    1.1572724039995949E-01
Cs    7.6624085579946677E-01    2.7513952270916792E-01    6.6040848690167228E-03
Ge    8.8588568377474153E-01    3.7551261518518569E-01    1.3105231240637294E-01
Br    8.7513430987835972E-01    3.8887109164517880E-01   -1.4846761991961116E-02
Br    8.8436408480470841E-01    2.5199011461325588E-01    1.1700285866086872E-01
Br    7.4548091139989536E-01    3.9348944967148025E-01    1.3151682068472281E-01
Cs    8.9967623286173661E-03    5.1249566742038788E-01   -1.9878285900817312E-02
Ge    1.3028517283380966E-01    6.3352205832111741E-01    1.3116950787568449E-01
Br    1.2541621326547514E-01    6.1943692313621534E-01   -1.3315052791239694E-03
Br    1.3618824129361551E-01    5.0493945470126778E-01    1.4000539194706241E-01
Br    1.1783279619209980E-03    6.2968731530921573E-01    1.3105625494844772E-01
Cs    2.4088761932423020E-01    4.8295873288421765E-01   -1.4036302323452259E-03
Ge    3.7465557814765066E-01    6.2620889226734122E-01    1.4605085813997193E-01
Br    4.1454414705336690E-01    6.2356092343047032E-01   -8.9454085932500309E-03
Br    3.5730830522100626E-01    4.9174336200620533E-01    1.2998460763155370E-01
Br    2.4880985569399935E-01    6.2758088330362571E-01    1.1869346059414512E-01
Cs    5.0050607254253410E-01    4.8350821321668042E-01   -1.3314588339376607E-02
Ge    6.1168365378051603E-01    6.3632788512481886E-01    1.1563681670854621E-01
Br    6.0750771868158038E-01    6.1263761512811699E-01   -2.2277362996209198E-03
Br    6.1107495662403610E-01    5.0238197439675136E-01    1.1122648686336695E-01
Br    4.8920445576422100E-01    6.1312224031848783E-01    1.5063035817221673E-01
Cs    7.6565577730259504E-01    5.0716942310975632E-01    9.0080389931246393E-03
Ge    8.8057918858443862E-01    6.2302440688248639E-01    1.1318016953612431E-01
Br    8.6408144901491746E-01    6.2149112949980645E-01   -2.9600086026908660E-03
Br    8.9274445548793824E-01    5.0717859856696201E-01    1.2751200020198217E-01
Br    7.3072952824232185E-01    6.2421541668177249E-01    1.1335194538557257E-01
Cs   -6.5587317441771625E-03    7.3709285536427238E-01    1.0312805421642882E-02
Ge    1.1551856138001459E-01    8.7684468787105352E-01    1.1686364219858501E-01
Br    1.1439731522020538E-01    8.8012591239371363E-01    5.9709246337970642E-03
Br    1.1744845202770519E-01    7.4754695204997645E-01    1.0956121193586979E-01
Br   -1.7929757927941138E-02    8.8579450520943182E-01    1.4164436356037147E-01
Cs    2.4593902093790559E-01    7.5176637434149585E-01    1.2963153900119791E-02
Ge    3.7965887251152586E-01    8.6205965161833464E-01    1.2877138109184877E-01
Br    3.7820267277992980E-01    8.7823139420381036E-01    9.1266195361060301E-03
Br    3.5615594834586328E-01    7.4666796251290390E-01    1.1623820440395263E-01
Br    2.3768657037891350E-01    8.6714616788318744E-01    1.3157500620659493E-01
Cs    5.0635844296014154E-01    7.6776092063314771E-01    3.0482857208647750E-02
Ge    6.3660781724086335E-01    8.9528057967539043E-01    1.1835486668805763E-01
Br    6.3305710491296174E-01    9.0207968544730710E-01    5.0264685046285465E-03
Br    6.0722248987174809E-01    7.5093257564379912E-01    1.5030645333937512E-01
Br    4.9399213040754714E-01    8.5843278418041435E-01    1.3882186892060705E-01
Cs    7.5351352054445186E-01    7.5759803646166468E-01    1.2008071192792043E-03
Ge    8.7609169012557253E-01    8.7822985233792616E-01    1.0345765739072353E-01
Br    9.2114142463603776E-01    8.6897485214504666E-01   -3.4660608741159207E-03
Br    8.8344336498734022E-01    7.4817091851935891E-01    1.2396612645356449E-01
Br    7.4544250393118905E-01    8.5049929111760436E-01    1.3220938328185913E-01
Cs    2.6455608087534575E-02    5.9153772744256249E-03    2.4765696739198650E-01
Ge    1.3711376311952109E-01    1.2979363362577889E-01    3.9028155530095593E-01
Br    1.3478928899607948E-01    1.2672969588931299E-01    2.6487577451810579E-01
Br    1.2982506506014607E-01    1.0712442622050511E-02    3.9157921887248903E-01
Br    1.9168859828257358E-03    1.3173371073501555E-01    3.7960328158981788E-01
Cs    2.4307332045797134E-01   -1.6265196210316489E-05    2.3261790937833757E-01
Ge    3.7909773460406482E-01    1.2870830044464956E-01    3.6526389807749426E-01
Br    3.6385995104202423E-01    1.5891191663103407E-01    2.5845642436475441E-01
Br    3.8091275335030506E-01    7.3600208553826693E-03    3.6212746873856050E-01
Br    2.5366552641592133E-01    1.2884858722222678E-01    3.9220287789569641E-01
Cs    5.0746948258630920E-01   -4.3474657258504978E-03    2.6554198513654736E-01
Ge    6.2662412407955437E-01    1.2740087688079069E-01    3.6640768137789925E-01
Br    6.2553461403590049E-01    1.1835973792391744E-01    2.5661469863656022E-01
Br    6.5012461566819690E-01   -1.3024787899471382E-02    3.6603731324580474E-01
Br    4.9574462183346119E-01    1.5154481643294984E-01    3.7465604678460851E-01
Cs    7.6688698008721834E-01   -6.5527392834386050E-04    2.4530883223616018E-01
Ge    8.9031651020611091E-01    1.3887534480394145E-01    3.6759877215865255E-01
Br    8.8200326905251580E-01    1.0852441036036478E-01    2.5129687582069338E-01
Br    8.6441262170417221E-01    1.1970864136326162E-02    3.8885748321923602E-01
Br    7.4808822121419016E-01    1.2215103993999790E-01    3.7315749390367814E-01
Cs   -2.3983528549107367E-03    2.6714315833014440E-01    2.6287664001675859E-01
Ge    1.3338862679256455E-01    3.8158430892570644E-01    3.8786701991791084E-01
Br    1.3407695173477172E-01    3.5974581894212876E-01    2.7388839107027652E-01
Br    1.4002385719900132E-01    2.6532334946077113E-01    4.0242406506188372E-01
Br    5.6283621347497448E-03    3.9079588181484048E-01    3.8747200078873834E-01
Cs    2.5160580159524543E-01    2.6483774675743926E-01    2.5212588722733897E-01
Ge    3.7254585470595819E-01    3.7276521750008990E-01    3.7516795322388008E-01
Br    3.5858526417803294E-01    3.8579777870709453E-01    2.5762748906872568E-01
Br    3.6648959449022572E-01    2.5968340169432480E-01    3.7615938455658660E-01
Br    2.5431159239014245E-01    3.9047362233462629E-01    4.0192305494889935E-01
Cs    4.9112526604410922E-01    2.4787699969995991E-01    2.1494387973545698E-01
Ge    6.0717364144538222E-01    3.7512222641538123E-01    3.7675021367982908E-01
Br    6.0065231587758006E-01    3.5284084423289258E-01    2.6731302169179288E-01
Br    6.3709353996827089E-01    2.4122216985989672E-01    3.7766913558753784E-01
Br    4.9147933703374097E-01    3.7783909669742771E-01    3.8833111337882825E-01
Cs    7.3060311979628301E-01    2.6432068808271941E-01    2.4864817970063785E-01
Ge    8.5552016139641185E-01    3.7998964846714933E-01    3.8131202917672130E-01
Br    8.8323186382039875E-01    3.9157770317152091E-01    2.4041427514678115E-01
Br    8.7200878986134400E-01    2.6122076564345897E-01    3.5738388604383253E-01
Br    7.4825578809023197E-01    3.8670843473190120E-01    3.5525941340095479E-01
Cs   -6.2579218576776377E-03    5.2203855987107972E-01    2.5741283856833325E-01
Ge    1.1772651284228322E-01    6.2365094156775558E-01    3.7528503147895159E-01
Br    1.4093061105923299E-01    6.4279217420002710E-01    2.4130710558739879E-01
Br    1.3381659240423258E-01    5.0489373856884390E-01    3.5591397080469800E-01
Br    3.5886847418803236E-03    6.4361517955418723E-01    3.6171232657236790E-01
Cs    2.5687209053647198E-01    5.0861325665064239E-01    2.5877080515723339E-01
Ge    3.7226324784370551E-01    6.1734207577731026E-01    3.8070044174353512E-01
Br    3.6066238121999333E-01    6.4352011825503996E-01    2.5588884642356979E-01
Br    3.8724874052138741E-01    5.0084610022634302E-01    3.7525397779492398E-01
Br    2.5635374160236485E-01    6.3094365634006311E-01    3.8597826010263353E-01
Cs    5.0781847913810163E-01    4.8711166422877539E-01    2.4067117492744422E-01
Ge    6.1634886129887589E-01    6.3559159676537680E-01    3.6861451465089501E-01
Br    6.2218635790218935E-01    6.1594854539668420E-01    2.4272467480315160E-01
Br    6.1782607669116896E-01    4.8829193869045123E-01    3.7650413204432304E-01
Br    5.0046877693808534E-01    6.3990753105257714E-01    3.8992016005826635E-01
Cs    7.4222811820166812E-01    5.1353613449130386E-01    2.4919543978207176E-01
Ge    8.7181420961421718E-01    6.2344217296330817E-01    3.6771823522821329E-01
Br    8.6631949893958549E-01    6.2601259299835998E-01    2.4893729624757438E-01
Br    8.7077437533842705E-01    5.0697081576718306E-01    3.8084331581117525E-01
Br    7.4835926341995440E-01    6.1900545065990187E-01    3.8346291213716527E-01
Cs   -1.0384451334143289E-02    7.4182492936001287E-01    2.5049927486354256E-01
Ge    1.2078703681636262E-01    8.6974894493634447E-01    3.6835881940602477E-01
Br    1.3651462894786914E-01    8.8227104660800060E-01    2.5427002165224938E-01
Br    1.3036992380863699E-01    7.6572967576489859E-01    3.7378192825853807E-01
Br   -1.0106447256626972E-02    8.8743941483351130E-01    3.5921122141242645E-01
Cs    2.5922062398055201E-01    7.6092767664705085E-01    2.4674862209613638E-01
Ge    3.8284574324002441E-01    8.8234426085667117E-01    3.8339660047907059E-01
Br    3.7909820666956329E-01    8.8036712622618218E-01    2.5668641380858825E-01
Br    3.8268197074636251E-01    7.6694586930719888E-01    3.8835178684468619E-01
Br    2.4941919202605434E-01    8.7162742903318136E-01    3.7816500629899269E-01
Cs    5.0211276786881287E-01    7.6065806965739080E-01    2.6611706924531853E-01
Ge    6.3676150363468764E-01    8.7930500240959453E-01    3.6152562190518361E-01
Br    6.1321953322328315E-01    8.7845784156380091E-01    2.4851711495269055E-01
Br    6.1758002573415360E-01    7.5167021699293002E-01    3.7009864580886159E-01
Br    5.0867848853734443E-01    8.8029065613551993E-01    3.9542138735018778E-01
Cs    7.5889220042645955E-01    7.2909223657196354E-01    2.5513493574287210E-01
Ge    8.7503566628521412E-01    8.8407146611274545E-01    3.5838290961677338E-01
Br    8.5391202248776921E-01    8.6053797969698742E-01    2.4579682686570650E-01
Br    8.6634050930751205E-01    7.5814024964517901E-01    3.6738312671349260E-01
Br    7.5405285998158678E-01    8.7915669222973158E-01    3.7346427720542164E-01
Cs   -1.2163694740608669E-02   -1.5014881562372026E-02    4.8757272892007736E-01
Ge    1.2478016665552533E-01    1.1338757303024170E-01    6.1671925713016906E-01
Br    1.0612671361783377E-01    8.6640898621197129E-02    5.0708805399033907E-01
Br    1.4238297199628802E-01   -5.9939918414786747E-03    6.5054973305960495E-01
Br    6.8691758571857841E-03    1.2468592854922081E-01    6.2780277805458418E-01
Cs    2.4972836375059740E-01   -2.4677478909765930E-03    5.1358159406452597E-01
Ge    3.7841170057240769E-01    1.2333272987373910E-01    6.1496849979848778E-01
Br    3.9316959115171457E-01    1.2260399603609334E-01    5.0512378257912216E-01
Br    3.8122344175761053E-01    2.9413306181987793E-03    6.3419155846897268E-01
Br    2.3581574476870382E-01    1.2668582992241603E-01    6.0263684852079502E-01
Cs    5.0282893144791108E-01   -3.8778341744728113E-03    5.1645350648650079E-01
Ge    6.2514434515280382E-01    1.1109248355666865E-01    6.2443905973237024E-01
Br    6.1361520723440710E-01    1.1496692732601482E-01    5.0674606014799228E-01
Br    6.2139636223709549E-01   -4.2508356146251664E-03    6.3271550162920942E-01
Br    4.8732291348512907E-01    1.2434759425346288E-01    6.5091516112143633E-01
Cs    7.4392616643787390E-01   -8.1718145846360057E-03    4.9983386249848377E-01
Ge    8.7826530307046791E-01    1.2074028605324010E-01    6.1245905317519211E-01
Br    8.9336846299434247E-01    1.4671039046861742E-01    5.0109883313620773E-01
Br    8.7845879857760301E-01   -8.8202559424456796E-03    6.0873097333503201E-01
Br    7.4367968788692029E-01    1.1587645510518471E-01    6.1468512866463954E-01
Cs   -1.2135838608024599E-02    2.8143508069056355E-01    5.0331467487194514E-01
Ge    1.2156469156093265E-01    3.7152241188323865E-01    6.2970043558708777E-01
Br    1.1915235551416861E-01    4.0514831185425376E-01    5.1759314752150565E-01
Br    1.1968338058294596E-01    2.5047831317578895E-01    6.1891687111689886E-01
Br   -6.9609028082492103E-03    3.5972069767513437E-01    6.4001080202519200E-01
Cs    2.5519725650591701E-01    2.5551176805700559E-01    5.0159393755615822E-01
Ge    3.7642441789314163E-01    3.6492333123092530E-01    6.1916263783510062E-01
Br    3.6988574453608264E-01    3.6668623826453478E-01    5.0454649196537260E-01
Br    3.7196924978897800E-01    2.5645156451135576E-01    6.3062556629019695E-01
Br    2.5894793787637305E-01    3.7078411630191249E-01    6.3102148768845467E-01
Cs    4.9628552892708838E-01    2.3431998076992250E-01    5.1426472519527811E-01
Ge    6.2929660631629825E-01    3.6357347550590746E-01    6.2964576421184815E-01
Br    6.0082773365611286E-01    3.8719197154267493E-01    5.1543204162119705E-01
Br    6.2524504573049722E-01    2.4732738018245645E-01    6.2337582899130672E-01
Br    5.0616748897534392E-01    3.5200758134085602E-01    6.4374723985338267E-01
Cs    7.3809486601848262E-01    2.1853154139208505E-01    4.9976925055010346E-01
Ge    8.6867328637465668E-01    3.7235638573893159E-01    6.2347159413927533E-01
Br    8.5853245379244125E-01    3.6648053141561054E-01    4.8916473781554082E-01
Br    8.6490056758168998E-01    2.3412545263475321E-01    6.3902420127963167E-01
Br    7.4077598886908858E-01    3.6438893173537457E-01    6.2026900180549571E-01
Cs    3.4417520378841118E-03    5.0686010525591374E-01    5.1601420352886307E-01
Ge    1.2194757773409574E-01    6.1233568673177841E-01    6.3014047652648775E-01
Br    1.0159271171490991E-01    6.2326639560642749E-01    4.9602981203823304E-01
Br    1.1936830031411211E-01    5.0141204349996749E-01    6.6060879217671931E-01
Br   -6.8249405033331571E-03    6.2801256207374501E-01    6.1915830168595942E-01
Cs    2.5681217185047905E-01    5.1555125311902961E-01    4.9885394486359169E-01
Ge    3.8135875714568951E-01    6.1410516579496777E-01    6.1630162988155635E-01
Br    3.7772084338239631E-01    6.2046534722591340E-01    4.9613525675270209E-01
Br    3.8520180783450803E-01    5.0335144284360833E-01    6.3296542969322933E-01
Br    2.4109423070039823E-01    6.4942852282971242E-01    6.1034807895038201E-01
Cs    4.8215504654646574E-01    5.0492304860395743E-01    4.9679312722438956E-01
Ge    6.3106316730218059E-01    6.1167601765179080E-01    6.1101099995989894E-01
Br    6.1716971326795733E-01    6.3334208709713180E-01    5.0091702802412630E-01
Br    6.3811351153593454E-01    4.9340985845208180E-01    6.1530790325828000E-01
Br    4.9634065008001133E-01    6.1523807745128889E-01    6.3939009309718420E-01
Cs    7.4850644306579051E-01    4.9860748462189086E-01    4.9917373079709970E-01
Ge    8.7766787804672119E-01    6.2437297247373569E-01    6.0966550011845111E-01
Br    8.9598264986805753E-01    6.4058772414725784E-01    4.9358573425348690E-01
Br    8.6982745156808317E-01    4.9822567154658459E-01    5.9731885642062721E-01
Br    7.5111886000790862E-01    6.1922266117879310E-01    6.1563417427461642E-01
Cs   -7.4900403254975940E-03    7.6745169677621805E-01    4.9033768923546456E-01
Ge    1.1560200618976764E-01    8.7280603556363789E-01    6.2256877963335633E-01
Br    1.2622177443629459E-01    8.8166775756076565E-01    4.9889775848006451E-01
Br    9.8747853466480989E-02    7.4998952858404067E-01    6.2657531556604706E-01
Br    8.7859628929514381E-03    8.9194455481515422E-01    6.5380428914274691E-01
Cs    2.5617994677480638E-01    7.6067493055165059E-01    4.8451757527047967E-01
Ge    3.6813189198783830E-01    8.5205095830566957E-01    6.1497281581984942E-01
Br    3.8797971183986707E-01    8.7680865524059126E-01    5.0456745774712364E-01
Br    4.0342525952912145E-01    7.4293577899696828E-01    6.1701261700218024E-01
Br    2.5840787031433066E-01    8.5958721809542660E-01    5.9576630626182137E-01
Cs    5.0705695511486359E-01    7.4588817005187624E-01    4.9248213995146245E-01
Ge    6.1539973575268370E-01    8.7004009994239706E-01    6.1200432162511587E-01
Br    6.3285945482863126E-01    8.7158287594007589E-01    4.9343449080784407E-01
Br    6.1755780447246478E-01    7.5078996220786898E-01    6.0520961382018490E-01
Br    5.0252957524061348E-01    8.7746652146964987E-01    6.2859985136740093E-01
Cs    7.5217834821391327E-01    7.5308962823681824E-01    5.0664659388269462E-01
Ge    8.6299051792350390E-01    8.8327403511753544E-01    6.1109579623818011E-01
Br    8.6571272802430088E-01    8.6767719970348456E-01    5.0270567692207802E-01
Br    8.7277059502683263E-01    7.4965282588606152E-01    6.2362703773276662E-01
Br    7.4821877523101421E-01    8.8428941081768653E-01    6.1147180539637624E-01
Cs   -5.0317541334328900E-03    1.6367406461679545E-03    7.4573392688751139E-01
Ge    1.3281726281115475E-01    1.1565758418932930E-01    8.7865766142075485E-01
Br    1.3773850973006280E-01    1.2941390196739994E-01    7.6076004005162867E-01
Br    1.5020239187431941E-01   -3.2405875124793234E-03    8.5265785352662249E-01
Br   -1.3771803540592214E-03    1.2853687805535233E-01    8.7718654684305797E-01
Cs    2.6578544696032452E-01    7.7818367009232945E-03    7.4434841768111681E-01
Ge    3.7416841763352349E-01    1.3717776929597439E-01    8.7988967762164616E-01
Br    3.8304331170705397E-01    1.3513942958616412E-01    7.6035878974732507E-01
Br    3.6163361629462526E-01   -2.4472536195373790E-02    8.7962243348511449E-01
Br    2.5749516461711047E-01    1.2025503265157002E-01    8.6915278807842289E-01
Cs    4.9222373329920371E-01    9.1125579700285474E-03    7.6006057815851757E-01
Ge    6.1919434641727689E-01    1.1192199985596663E-01    8.6369625254669791E-01
Br    6.0730076400265698E-01    1.1764289056513504E-01    7.5388573588024610E-01
Br    6.2308343665121124E-01    1.5137530787777652E-03    8.6554383666059898E-01
Br    5.0528529034987746E-01    1.2646975432453136E-01    9.0274250382845755E-01
Cs    7.4537520169997673E-01   -2.8596832217394421E-02    7.4970524816189166E-01
Ge    8.7242551906472343E-01    1.2536369520033294E-01    8.6084638852190620E-01
Br    8.7243439437707682E-01    1.0867817401953800E-01    7.5140310712898439E-01
Br    8.9002685503964485E-01   -8.0717545226231917E-03    8.7059146032147661E-01
Br    7.4083576612558610E-01    1.2282361446670173E-01    8.6005266839431238E-01
Cs    1.1948809580421356E-02    2.3194831181041331E-01    7.4975782622222342E-01
Ge    1.2713889656390112E-01    3.8039326226713999E-01    8.8378725584768936E-01
Br    1.4149816397536641E-01    3.3915858881743788E-01    7.5985816215872282E-01
Br    1.3229225684931370E-01    2.3525839827835904E-01    8.7546696003929458E-01
Br    1.0988090848566341E-02    3.9707643880087562E-01    8.7628628285899524E-01
Cs    2.4736000579123288E-01    2.3481903875276025E-01    7.4764007457975334E-01
Ge    3.6725831328614289E-01    3.8744603194239452E-01    8.6584114307763294E-01
Br    3.8066647031022288E-01    3.5533957358041507E-01    7.4822429900515763E-01
Br    3.8113916128216585E-01    2.4359842753103772E-01    9.1275202586257576E-01
Br    2.5293174577985894E-01    3.6619780587151191E-01    8.8357520597234163E-01
Cs    4.9817098578066371E-01    2.4169692344524779E-01    7.5768185518157072E-01
Ge    6.2672192806457272E-01    3.7112835580368558E-01    8.5827546368718699E-01
Br    6.3293399135726303E-01    3.6600946130288797E-01    7.4516073995388787E-01
Br    6.3919189552431366E-01    2.5926659500979793E-01    8.5672198462668570E-01
Br    5.0650236776536450E-01    3.6887414575151128E-01    8.6154964432452474E-01
Cs    7.5061928366571351E-01    2.5326062726514431E-01    7.4858494706716983E-01
Ge    8.7204251052511861E-01    3.8143567083713648E-01    8.6555626313762923E-01
Br    8.6522456976505058E-01    3.8857711235774217E-01    7.3515133416950440E-01
Br    8.6143320753235686E-01    2.5372235095660334E-01    8.6132237956124691E-01
Br    7.6298317025304119E-01    3.9254984541630161E-01    8.8546082761554512E-01
Cs    5.2658560664601943E-03    5.0220016348244001E-01    7.7492277497765250E-01
Ge    1.3906888370276579E-01    6.3401017929993708E-01    8.7466956199674439E-01
Br    1.0052548725827544E-01    6.2964321571774351E-01    7.5030799598897846E-01
Br    1.4097737159603110E-01    5.0281165168572117E-01    8.8248292448976318E-01
Br   -9.2698924880264925E-03    6.2161663942112466E-01    8.7326010790312170E-01
Cs    2.5070470040876069E-01    4.6886620643539662E-01    7.5548367623180401E-01
Ge    3.9970874430711456E-01    6.3103241542966571E-01    8.8287711157339899E-01
Br    3.5941068263833370E-01    6.3329487536656448E-01    7.3872015827528958E-01
Br    3.8711993220028129E-01    4.8948724887769884E-01    8.4640786447121608E-01
Br    2.4464382247949776E-01    6.2723418640748940E-01    8.5636201031000869E-01
Cs    5.0498883049515431E-01    4.6484086405233299E-01    7.3132187341218924E-01
Ge    6.2935720346868562E-01    6.1657263054856115E-01    8.5701659743990433E-01
Br    6.2411288564467504E-01    6.4456847620211155E-01    7.4620419677777083E-01
Br    6.2256885644348603E-01    4.9266912493327875E-01    8.4519423444805897E-01
Br    5.0167778524640927E-01    5.9515417634568490E-01    8.6465131722760413E-01
Cs    7.3713260489988797E-01    5.1494631070604280E-01    7.3965421965343259E-01
Ge    8.7575787660648419E-01    6.2603765134727163E-01    8.6016784702465598E-01
Br    8.6339820844470305E-01    6.4918606308016291E-01    7.3538029464900900E-01
Br    8.7093518240220624E-01    5.0142116947896820E-01    8.6406993843631852E-01
Br    7.4163588887740528E-01    6.1541418416950211E-01    8.6909879650766919E-01
Cs   -1.1974068823515318E-02    7.4022279853632911E-01    7.5365331468131735E-01
Ge    1.5043098042375505E-01    8.6593925101001445E-01    8.6209172831552128E-01
Br    1.4672774121458890E-01    8.3913135119702587E-01    7.5225618205169686E-01
Br    1.1761076957717813E-01    7.5360230126093652E-01    8.8605079624426275E-01
Br   -3.6311993547134972E-03    8.5433549417518595E-01    8.5200542172679727E-01