 # Version information for this restart file 
 # current date 2021-09-10 19:33:53.297
 # current working dir /projectsp/f_rcr78_1/MW/Hybrid_Perovskite/MAPbBr3/300K_MLWF_2R
 # Program compiled at                              Fri Sep 13 14:50:45 EDT 2019
 # Program compiled on                             slepner083.amarel.rutgers.edu
 # Program compiled for                                                    local
 # Source code revision number                                       git:e35496b
 &GLOBAL
   PRINT_LEVEL  LOW
   PROJECT_NAME MPB_MD_300
   RUN_TYPE  MD
   WALLTIME 47:59:00
 &END GLOBAL
 &MOTION
   &GEO_OPT
     TYPE  MINIMIZATION
     OPTIMIZER  CG
     MAX_ITER  200
     MAX_DR     1.0000000000000000E-03
     MAX_FORCE     1.0000000000000000E-03
     RMS_DR     1.0000000000000000E-03
     RMS_FORCE     1.0000000000000000E-03
     STEP_START_VAL  0
     &CG
       MAX_STEEP_STEPS  0
       RESTART_LIMIT     9.0000000000000002E-01
     &END CG
   &END GEO_OPT
   &CELL_OPT
     STEP_START_VAL  0
   &END CELL_OPT
   &MD
     ENSEMBLE  NVT
     STEPS  5000
     TIMESTEP     9.9999999999999989E-01
     STEP_START_VAL  7072
     TIME_START_VAL     7.0719999999992888E+03
     ECONS_START_VAL    -4.0430748691912459E+03
     TEMPERATURE     3.0000000000000000E+02
     COMVEL_TOL     1.0000000000000000E-08
     &THERMOSTAT
       TYPE  CSVR
       &CSVR
         TIMECON     9.9999999999999986E+01
         &THERMOSTAT_ENERGY
              -8.7113934889909050E-01
         &END THERMOSTAT_ENERGY
         &RNG_INIT
Wiener process for Thermostat # 1        1 F T F   9.5468522849332951E-02        1225852132.0          28668949.0         198178224.0        2900012749.0        1898578327.0        1993569308.0             12345.0             12345.0             12345.0             12345.0             12345.0             12345.0             12345.0             12345.0             12345.0             12345.0             12345.0             12345.0
         &END RNG_INIT
       &END CSVR
     &END THERMOSTAT
     &AVERAGES  T
       &RESTART_AVERAGES
         ITIMES_START  1
         AVECPU     2.9877839203273209E+02
         AVEHUGONIOT     0.0000000000000000E+00
         AVETEMP_BARO     0.0000000000000000E+00
         AVEPOT    -4.0432951145607626E+03
         AVEKIN     1.0779341846373891E+00
         AVETEMP     2.9585770327372222E+02
         AVEKIN_QM     0.0000000000000000E+00
         AVETEMP_QM     0.0000000000000000E+00
         AVEVOL     8.9606951177357871E+04
         AVECELL_A     4.4748714826731884E+01
         AVECELL_B     4.4748714826731884E+01
         AVECELL_C     4.4748714826731884E+01
         AVEALPHA     9.0000000000000000E+01
         AVEBETA     9.0000000000000000E+01
         AVEGAMMA     9.0000000000000000E+01
         AVE_ECONS     7.6077081459142910E+00
         AVE_PRESS     0.0000000000000000E+00
         AVE_PXX     0.0000000000000000E+00
       &END RESTART_AVERAGES
     &END AVERAGES
   &END MD
   &PRINT
     &TRAJECTORY  SILENT
       &EACH
         MD  1
       &END EACH
     &END TRAJECTORY
     &VELOCITIES  SILENT
       &EACH
         MD  1
       &END EACH
     &END VELOCITIES
     &FORCES  SILENT
       &EACH
         MD  1
       &END EACH
     &END FORCES
     &STRESS  SILENT
       &EACH
         MD  1
       &END EACH
     &END STRESS
     &RESTART  SILENT
       BACKUP_COPIES  3
       &EACH
         MD  1
       &END EACH
     &END RESTART
     &RESTART_HISTORY  SILENT
       &EACH
         MD  5
       &END EACH
     &END RESTART_HISTORY
   &END PRINT
 &END MOTION
 &FORCE_EVAL
   METHOD  QS
   &DFT
     BASIS_SET_FILE_NAME BASIS_MOLOPT
     POTENTIAL_FILE_NAME GTH_POTENTIALS
     MULTIPLICITY  1
     CHARGE  0
     &SCF
       MAX_SCF  30
       EPS_SCF     1.0000000000000001E-05
       CHOLESKY  INVERSE
       SCF_GUESS  ATOMIC
       ADDED_MOS  20
       &DIAGONALIZATION  T
         ALGORITHM  STANDARD
       &END DIAGONALIZATION
       &OUTER_SCF  T
         EPS_SCF     1.0000000000000001E-05
         MAX_SCF  10
       &END OUTER_SCF
       &SMEAR  T
         METHOD  FERMI_DIRAC
         ELECTRONIC_TEMPERATURE     5.0000000000000007E+01
       &END SMEAR
       &MIXING  T
         METHOD  BROYDEN_MIXING
         ALPHA     4.0000000000000002E-01
         BETA     5.9999999999999998E-01
         NBUFFER  8
       &END MIXING
       &PRINT
         &RESTART  OFF
         &END RESTART
       &END PRINT
     &END SCF
     &QS
       EPS_DEFAULT     1.0000000000000000E-10
       EXTRAPOLATION  ASPC
       METHOD  GPW
     &END QS
     &MGRID
       NGRIDS  4
       CUTOFF     4.5000000000000000E+02
       REL_CUTOFF     7.0000000000000000E+01
     &END MGRID
     &XC
       DENSITY_CUTOFF     1.0000000000000000E-10
       GRADIENT_CUTOFF     1.0000000000000000E-10
       TAU_CUTOFF     1.0000000000000000E-10
       &XC_FUNCTIONAL  NO_SHORTCUT
         &PBE  T
         &END PBE
       &END XC_FUNCTIONAL
     &END XC
     &POISSON
       PERIODIC  XYZ
     &END POISSON
     &LOCALIZE  T
       EPS_LOCALIZATION     1.0000000000000001E-05
       METHOD  JACOBI
       &PRINT
         &WANNIER_CENTERS  SILENT
           IONS+CENTERS  T
         &END WANNIER_CENTERS
         &WANNIER_SPREADS  SILENT
         &END WANNIER_SPREADS
       &END PRINT
     &END LOCALIZE
     &REAL_TIME_PROPAGATION
       INITIAL_WFN  SCF_WFN
     &END REAL_TIME_PROPAGATION
     &PRINT
       &MO_CUBES  SILENT
         WRITE_CUBE  F
         NLUMO  4
         NHOMO  4
         &EACH
           MD  10
         &END EACH
       &END MO_CUBES
       &E_DENSITY_CUBE  OFF
       &END E_DENSITY_CUBE
     &END PRINT
   &END DFT
   &SUBSYS
     &CELL
       A     2.3680000000000017E+01    0.0000000000000000E+00    0.0000000000000000E+00
       B     0.0000000000000000E+00    2.3680000000000017E+01    0.0000000000000000E+00
       C     0.0000000000000000E+00    0.0000000000000000E+00    2.3680000000000017E+01
       MULTIPLE_UNIT_CELL  1 1 1
     &END CELL
     &COORD
C    2.4699293008566184E-01    2.8510398558047761E-01    2.5324763983975890E-01
N    5.8265883487291954E-03    2.5455941941097332E-01    3.8945331602035872E-02
H    2.3624581630461580E-01    2.6399460135696251E-01    2.9111711065188567E-01
H    2.9586646982637782E-01   -1.5541346590084713E-02   -3.0318862323284769E-02
H    2.0145748641171107E-01    2.1442015445587981E-01   -3.6655372030729078E-02
H   -3.4405860801092730E-02   -1.5304373070121776E-02    2.9524866671224459E-01
H    1.1571025222559683E-02    3.0433354448975880E-01    2.0302186514538173E-01
H   -6.8455812253401362E-03    2.1558691590654372E-01    5.7394971298604554E-02
Pb    1.2325578703897883E-01    1.1510178087503882E-01    1.2320366534782522E-01
Br    1.4495524490684197E-01    1.2464085410823061E-01    2.5112444309962639E-01
Br    1.0150630188260693E-01   -9.2159506844583603E-03    9.3153631388922270E-02
Br    2.4434088159503420E-01    1.2880886743397657E-01    9.2870874005829898E-02
C    4.8624155463952484E-01    2.3670321603412253E-01    2.2981381987814836E-01
N    2.4031115394134694E-01    2.8799210762514338E-01    5.0539490727266488E-03
H    4.6837218055185043E-01    1.9602717891322313E-01    2.3884197562008860E-01
H    5.2484549423696292E-01   -4.1835680966889714E-02   -3.4197390923635593E-02
H    4.3706722315138880E-01    2.2310040205039386E-01   -6.9267012187582914E-03
H    2.4145328230504626E-01    6.3133430584902228E-02    2.5273202604456829E-01
H    2.0234214354325544E-01    2.7166696710775917E-01    1.7561910706427852E-01
H    2.6656968288023764E-01    2.9196862642829735E-01    3.9922156088125493E-02
Pb    3.7167148169482245E-01    1.2045299627235638E-01    1.1690686020292371E-01
Br    3.3688188939120345E-01    1.4814752241357926E-01    2.4492453397907282E-01
Br    3.5311146264384985E-01   -1.6345865075578466E-03    1.3348038786824007E-01
Br    4.9425238988576448E-01    1.0078674504853417E-01    1.3389839260334049E-01
C    7.4107859767295092E-01    2.8096733861351730E-01    2.3902449949141175E-01
N    5.0795487061071021E-01    2.4476427801570844E-01   -5.7803804762891528E-02
H    7.0251751491093550E-01    3.0086229189614155E-01    2.2276360953740504E-01
H    7.3664922925674925E-01    6.5580420025502267E-02   -1.1457217393359663E-02
H    7.8758788368007915E-01    2.8194709009033025E-01   -4.8490369078187698E-02
H    5.5005584770370575E-01   -6.9191013502421890E-03    2.0422084510728689E-01
H    5.6834063717161920E-01    2.1319371403095524E-01    2.5733221157330832E-01
H    5.4396789336847562E-01    2.7150570230636328E-01   -6.2570660561256694E-02
Pb    6.2390829899503419E-01    1.2416536830881010E-01    1.1106857504292193E-01
Br    6.3198650875651485E-01    1.2996556889646718E-01    2.3876784337986676E-01
Br    6.1217145819307484E-01   -6.2371636580714398E-03    1.0661828231307438E-01
Br    7.5251472894616545E-01    1.4849683828011359E-01    9.4197152396360617E-02
C    1.0067162540109333E+00    2.4435411628081738E-01    2.6940953520328037E-01
N    7.2098237592632997E-01    2.4968817993699824E-01    2.4926710592491643E-03
H    1.0170183327948499E+00    2.0724215379736485E-01    2.4138800234883606E-01
H    9.5807944916562260E-01   -3.6626048165897623E-02   -3.2730038183104222E-02
H    1.0045151749226167E+00    2.2896990812179510E-01   -4.7502875227960213E-02
H    7.9498485433621524E-01   -1.7876098782622845E-02    2.8938383681182950E-01
H    7.5836546247595682E-01    2.1154306434023407E-01    1.7477972006537126E-01
H    7.1509213678990458E-01    2.3266477746522962E-01    4.1521957075856715E-02
Pb    8.7868653770142269E-01    1.3061195354611152E-01    1.2992989812920880E-01
Br    8.4748785163826845E-01    1.2249951704445254E-01    2.5068607056056474E-01
Br    8.9385482933628801E-01   -1.5045570637232837E-03    1.1136098879760173E-01
Br    9.9857380630760684E-01    1.3772088950688444E-01    1.2798146195274721E-01
C    2.3336099861859450E-01    4.8606471131692924E-01    2.5645452257820384E-01
N   -5.8430063562393643E-02    5.2836862581253374E-01   -8.8785561314320659E-03
H    1.8892305007769788E-01    4.9310965403307094E-01    2.6325032577264351E-01
H    2.7357656397835334E-01    2.2285089810972972E-01   -5.4145889436351090E-02
H    2.4586292062633180E-01    4.6064462765541792E-01    2.9760927769074901E-02
H   -5.5236991138255032E-02    2.8805341046030203E-01    2.1650977063782342E-01
H   -2.5348767239733633E-02    5.2771443841123755E-01    3.0330734903427958E-01
H   -6.2231849130741076E-02    5.4297287360429181E-01    3.2293175063821310E-02
Pb    1.1035761645915221E-01    3.8173139102791859E-01    1.1532996002582493E-01
Br    9.0601774583963207E-02    3.7968890034578806E-01    2.4862700629354995E-01
Br    1.2395364245081884E-01    2.5239954707156836E-01    1.2569261767785844E-01
Br    2.4216681953003713E-01    3.8126462920398035E-01    1.2388132404896905E-01
C    5.0284126384017480E-01    4.8077362673591789E-01    2.4352715506907641E-01
N    2.2630115635639875E-01    5.4606440485830787E-01    5.4546354690505911E-03
H    5.1267718535774698E-01    4.6458717781650577E-01    2.8534178358408313E-01
H    4.9815031491815509E-01    2.3234917330226895E-01    3.3576873365040491E-02
H    4.7931686198258305E-01    5.0926373998757013E-01    5.0932594780262082E-02
H    2.6019341869924867E-01    2.2755930043317246E-01    1.8379947831574778E-01
H    2.8651091222161118E-01    5.0248510507309241E-01    1.8068935269524541E-01
H    2.5727470213785114E-01    5.7886031635839041E-01    5.5348766972689060E-03
Pb    3.6740962180779729E-01    3.6205123675664819E-01    1.2950644652585161E-01
Br    3.6763542164828178E-01    3.7110829129933803E-01    2.5275343579773468E-01
Br    3.4566680613901429E-01    2.4493288424121773E-01    9.9830293112224203E-02
Br    4.9204237566213516E-01    3.9339282173519430E-01    9.9393046147196004E-02
C    7.2328764603726836E-01    4.8434146587996740E-01    2.1085189748016175E-01
N    4.9814770213510673E-01    4.6627469663634602E-01   -2.6671852432319825E-02
H    7.3568069112972090E-01    4.3944159427745438E-01    2.1243295567815185E-01
H    7.8813189257938088E-01    3.0684036088029992E-01    2.2513120025701737E-02
H    7.7640581704513889E-01    4.8564971792616418E-01    2.0471547807430355E-02
H    5.5477465783591062E-01    2.8010372648202042E-01    2.7020695234689374E-01
H    4.3393994639591821E-01    5.1596522576253356E-01    2.8784801089423945E-01
H    5.3984046463374979E-01    4.7768609249916444E-01   -2.9422837340947194E-02
Pb    6.1017562845725282E-01    3.7326789021759055E-01    1.1177287627698594E-01
Br    6.0445885432472302E-01    3.6528522363542354E-01    2.3324533911280768E-01
Br    6.0967932303242633E-01    2.4364154313402991E-01    1.1420743165740620E-01
Br    7.3872534864790707E-01    3.5271829152875017E-01    1.1510734216202941E-01
C    9.9697368245472318E-01    4.9769276384179612E-01    2.1996625262707889E-01
N    7.4505294308490688E-01    5.2603640509929150E-01   -5.4524226020283138E-02
H    1.0093608809460581E+00    4.5565831893768183E-01    2.0519740694168290E-01
H    9.4011072124530637E-01    2.6598805176467327E-01   -2.3428424456368127E-02
H    1.0235792782748101E+00    4.9568305200585222E-01   -1.6230627954787473E-03
H    7.8560584659965416E-01    2.0256180480511224E-01    2.3687555521972509E-01
H    6.8912483908894551E-01    5.3122784200772200E-01    2.7496941729729429E-01
H    7.3980016388050029E-01    5.6361829804313401E-01   -3.5622741232120857E-02
Pb    8.6286382890611901E-01    3.8100649847625223E-01    1.0862565074963648E-01
Br    8.8290595529814908E-01    3.9762627592491101E-01    2.3670660837723281E-01
Br    8.7075089092571534E-01    2.4904616694258078E-01    1.5329229709883530E-01
Br    9.8700893426757041E-01    3.7684220216654313E-01    1.1643298691703133E-01
C    2.2220484499481757E-01    7.7463408475706497E-01    2.1658879029838046E-01
N   -2.3858367944638210E-02    7.4096126980023802E-01    4.5512679344502587E-02
H    1.8570617245756646E-01    7.4795242872098600E-01    2.0345150555634842E-01
H    2.5307859153301349E-01    4.7294222719152990E-01   -4.5902443283533934E-02
H    2.9866578758567330E-01    7.5097676581939254E-01    4.8815992880569800E-02
H   -4.4538001693047440E-02    4.6340499415982023E-01    2.8935863131134576E-01
H    6.1309364428704096E-03    7.9958895578214095E-01    2.8266576033489238E-01
H   -4.0739758281108278E-03    7.7406431189627556E-01    6.2723596531343198E-02
Pb    1.0776146466633378E-01    6.2037474267725012E-01    1.3639413841919859E-01
Br    1.5367189445547952E-01    6.2501888968378005E-01    2.4906655290945637E-01
Br    1.2883892265088170E-01    5.0177597578570254E-01    8.8575515542862804E-02
Br    2.2261112938352562E-01    6.3978426421150369E-01    1.1156037663474305E-01
C    4.8726942318412597E-01    7.3019016554052285E-01    2.3771306556704463E-01
N    2.1124471644059803E-01    7.4177051473886957E-01    1.2300688632556865E-02
H    4.4042525039943681E-01    7.3518020706470377E-01    2.4343509009197317E-01
H    4.7697567585106809E-01    5.5201433615558093E-01   -1.0668126776291397E-02
H    4.6113944360123338E-01    8.0774968546128656E-01   -3.0832358911258529E-03
H    2.1582919967285691E-01    4.9583211291171059E-01    1.6988364323032354E-01
H    2.5365755151267433E-01    7.1376305831067965E-01    2.7157000379642643E-01
H    2.0446611562654976E-01    7.1341710071114528E-01    4.3466769430663806E-02
Pb    3.5833980713158725E-01    6.2439634912544117E-01    1.2697043007181835E-01
Br    3.2825467037091849E-01    6.4136869664698026E-01    2.4357218194180716E-01
Br    3.6363164300012424E-01    4.9715677464990637E-01    1.3677057387368965E-01
Br    4.7224590017431151E-01    6.1982433565734152E-01    1.5151554751067575E-01
C    7.5392677499941863E-01    7.7300046690102919E-01    2.4368903845634704E-01
N    5.1768967456279424E-01    7.5288729301322432E-01    3.6405227863755135E-02
H    7.8891773054160963E-01    7.8034396662006733E-01    2.1365612618222618E-01
H    7.0197815139144382E-01    4.6752295474728467E-01   -4.6254745854581308E-03
H    6.7756949752823448E-01    7.5201899511072401E-01   -3.4607171241193398E-02
H    4.6086789715070403E-01    5.5864457431800363E-01    2.3097377996740312E-01
H    5.5717529817873834E-01    7.8334068356562825E-01    2.3657254489144031E-01
H    5.5216628289023240E-01    7.8393822888161802E-01    3.5938144049242317E-02
Pb    5.9904409386848445E-01    6.1156375065611379E-01    1.0142467516029757E-01
Br    6.2567523281737281E-01    5.9084957506634539E-01    2.4239861819370115E-01
Br    6.1896671160028305E-01    5.0009415354651032E-01    7.2977276294832874E-02
Br    7.2048041044482547E-01    6.1583824613617288E-01    1.1360252627935817E-01
C    9.5384305148419390E-01    7.4817603325964155E-01    2.3489271789995439E-01
N    7.6073723613679756E-01    7.6395696588734607E-01   -6.0636095926281264E-04
H    9.2421970892735084E-01    7.4108331462985699E-01    2.7069260193039940E-01
H    1.0057021208266406E+00    5.1739476345523394E-01   -7.4720231632089615E-02
H    1.0380992843589500E+00    7.3176806798465710E-01   -2.0557119365862030E-02
H    7.2810636334698997E-01    4.8146932646552565E-01    2.9954092000709048E-01
H    7.0303684286553991E-01    7.2425292343694569E-01    1.9255496177075929E-01
H    7.7874911803357072E-01    7.5882231514075094E-01    3.5889090458984536E-02
Pb    8.4701194781844358E-01    6.2571662890145296E-01    1.3273561142233953E-01
Br    8.1667086222156760E-01    6.1912423800023642E-01    2.5231922983732763E-01
Br    8.5151190235232499E-01    5.0385290237015978E-01    1.0403105566443380E-01
Br    9.7073910857981849E-01    6.1582276364182265E-01    1.1317208697383771E-01
C    2.2057491602532853E-01    9.8612965032421374E-01    2.1139259271438585E-01
N    3.5544232483273779E-03    1.0375391852295530E+00   -2.9085936050538691E-03
H    1.8650646958329123E-01    1.0097823844604481E+00    1.8849335777154061E-01
H    2.9259909070500978E-01    7.1582585501497398E-01   -2.0032330598889852E-02
H    2.5180627732858807E-01    9.3232268560093701E-01   -5.7335913821145073E-03
H    2.7579614872104918E-02    7.3532407588349680E-01    2.9096155033428672E-01
H    3.0289971943379814E-02    9.6351348350272437E-01    2.6725154149777014E-01
H   -2.4658139337780289E-02    1.0628411384333192E+00    1.8695869787365118E-02
Pb    1.0721111803145821E-01    8.7015842933008158E-01    1.1066837752485223E-01
Br    1.0893802030584612E-01    8.9448971969607560E-01    2.4171578503150493E-01
Br    9.0093339190634558E-02    7.4897840308438302E-01    1.4768646971289207E-01
Br    2.3476845405245006E-01    8.5659005146285749E-01    9.9640154036348946E-02
C    4.7772224565951921E-01    9.7342016893179328E-01    2.5431733176566790E-01
N    2.1651934955312668E-01    1.0164465177398276E+00   -9.3033151161225312E-03
H    4.4700996803748499E-01    9.8426518071756686E-01    2.2208334021945073E-01
H    4.9854638288211184E-01    7.6379765600175842E-01   -4.9359779274676684E-02
H    5.2527372439171138E-01    1.0233800646598632E+00   -6.3131348553520136E-02
H    2.8277185057092602E-01    7.7884888934815644E-01    2.8540988651757221E-01
H    2.9476122761923340E-01    1.0328719091846705E+00    2.1403440172685084E-01
H    2.1939876029659822E-01    1.0516867263340319E+00    1.2377670830138529E-02
Pb    3.6649370898484279E-01    8.7278082524831813E-01    1.1446075902676500E-01
Br    3.5957050438619670E-01    8.4799934257985776E-01    2.5050775450477442E-01
Br    3.9300163039381025E-01    7.5498648971785709E-01    1.1784576951308609E-01
Br    4.8838452844312391E-01    8.7718345702640399E-01    1.3012055250633492E-01
C    7.3719353326106141E-01    1.0105167952786411E+00    2.2841225187205083E-01
N    4.9169931431612912E-01    1.0240537377313996E+00    1.9555475760921041E-02
H    7.1369967049912375E-01    9.7356583150646026E-01    2.3251107549856836E-01
H    6.8702172917360171E-01    7.3331125688408039E-01    3.9678580083857599E-02
H    7.7604363636014395E-01    1.0376726684817517E+00    4.8164874400112363E-02
H    5.0030434625653741E-01    8.1289568930371103E-01    2.1389111709618225E-01
H    5.6095918948961132E-01    9.9893383530395219E-01    2.7482744515581475E-01
H    5.3331259842603473E-01    1.0346773443786832E+00    3.6719342979570947E-02
Pb    6.1792261371057844E-01    8.6460597435609865E-01    1.2148986675452415E-01
Br    6.1967282105752974E-01    8.8539213843737463E-01    2.4154050166641039E-01
Br    6.0987782799500900E-01    7.4142831013943022E-01    1.4617791256395943E-01
Br    7.4348722797899180E-01    8.7675579132825243E-01    9.5023686516257214E-02
C    9.8992079864266136E-01    1.0302073395862483E+00    2.2480090077120110E-01
N    7.3953308066640544E-01    9.8057130347256316E-01   -1.3340676283612482E-02
H    9.4496182957200203E-01    1.0455187123266998E+00    2.2303702608195158E-01
H    9.7094331043513371E-01    6.9483163383988467E-01   -2.9128450714840132E-02
H    9.7633587306321890E-01    9.6146106532552922E-01    3.9950809549560609E-02
H    7.4630549669597956E-01    6.8451588309913225E-01    2.3143731118859603E-01
H    7.4621918172852542E-01    1.0234981845043414E+00    3.2187914418300645E-01
H    7.3739175349976904E-01    9.4831485857791964E-01    1.8020400810155948E-02
Pb    8.6308538730696582E-01    8.8160141551647708E-01    1.2767787365736574E-01
Br    8.4776095878807967E-01    9.1723201680416155E-01    2.4864929142569314E-01
Br    8.4574424112983293E-01    7.4667362293837802E-01    1.1458158440090994E-01
Br    9.8730811824837950E-01    8.6165645271252966E-01    1.4285440340606023E-01
C    2.2072177813167396E-01    2.7153105624759855E-01    5.1231281407489304E-01
N   -1.4119160128356048E-02    2.9446678729164727E-01    2.3623978179149249E-01
H    2.1817418047176168E-01    2.6939269686582473E-01    5.5779664592655853E-01
H    1.9779911944685130E-01   -3.5557873524330763E-02    2.4333318846817936E-01
H    2.9302632675164919E-01    2.9400205406849822E-01    2.4886370244725281E-01
H    4.0355751354492750E-02    7.2677709394919354E-03    4.4582979725975647E-01
H    7.4747142564374229E-03    2.3891556265579431E-01    4.4287735867715222E-01
H   -1.5850865416092895E-02    3.2965598109373029E-01    2.6005992515586779E-01
Pb    1.2155943180696316E-01    1.3680393201314647E-01    3.6959367155388501E-01
Br    1.0146586001727886E-01    1.2418833985070958E-01    4.9680524900908912E-01
Br    9.3391710147895463E-02    1.4871709510087578E-02    3.5951656901992052E-01
Br    2.5634839800292558E-01    1.0270334318107685E-01    3.6714928817395559E-01
C    4.8736450654568625E-01    2.0710527059272388E-01    4.8548911542437534E-01
N    2.2869613515341328E-01    2.4880216918962950E-01    2.0411802869890622E-01
H    4.8927640914813514E-01    2.2462578966743471E-01    4.4192456371988292E-01
H    4.5968666567039951E-01   -1.1504604226558683E-02    2.9674014348274008E-01
H    4.5642337966336793E-01    2.7180736180041637E-01    2.3876116622750468E-01
H    2.9090106812827649E-01   -8.8251354085474541E-03    4.2581719622596531E-01
H    2.1620306956805196E-01    1.9112272905473279E-01    4.7156218802483346E-01
H    2.0130071229686619E-01    2.1882480238563887E-01    2.1923941268701400E-01
Pb    3.7555953449312984E-01    1.2481688812316351E-01    3.5694012801148717E-01
Br    3.6389601109499814E-01    1.0418207949110939E-01    5.0374174428620522E-01
Br    3.6147439596493286E-01    3.3999440696880503E-03    3.3973461013992118E-01
Br    5.0413104485984572E-01    1.0558683872303730E-01    3.5272739623112082E-01
C    7.3902727821230474E-01    2.3643458440931775E-01    4.8641340958422813E-01
N    5.3540684529418536E-01    2.3954600745637286E-01    2.6681617833092108E-01
H    7.2563564867145713E-01    1.9388669034626554E-01    5.0444998749026915E-01
H    7.7139143362749851E-01    6.1547485257147927E-03    1.9540355704479406E-01
H    7.3553079218419726E-01    2.7769610347329404E-01    2.8515756488513444E-01
H    5.2938492390631819E-01   -4.4553185646251749E-02    5.3218122746713048E-01
H    5.2846484791455728E-01    2.8575977156128879E-01    4.9706081603159230E-01
H    5.2393589396295703E-01    2.3136936940154340E-01    3.0888122763947468E-01
Pb    6.2607696415583813E-01    1.2402731624721992E-01    3.7234252652215266E-01
Br    5.9990625075818105E-01    9.3699624053182953E-02    4.9549981336513166E-01
Br    6.2046270401932180E-01   -3.7870149020982030E-03    3.5661827440791471E-01
Br    7.4157467036624414E-01    1.0267692736542378E-01    3.9509698505697161E-01
C    9.7569789016818564E-01    2.6159129041758411E-01    5.2645583671169749E-01
N    7.4902588657060509E-01    2.1987869051649342E-01    2.1879448335342075E-01
H    9.8839234448927349E-01    2.4273872290021614E-01    5.6663524254660258E-01
H    1.0021089846991735E+00    1.7830426231983883E-02    1.8137184155540709E-01
H    1.0472151560156222E+00    2.5738624144764860E-01    2.8980156423546966E-01
H    7.1111078568341690E-01    2.4364619247152910E-02    4.8714991696310483E-01
H    7.2879776873631030E-01    2.6972148928661438E-01    5.6731129153835436E-01
H    7.1630343864025514E-01    1.9448832810283020E-01    2.3102906893164604E-01
Pb    8.5899380679380533E-01    1.4299787204371017E-01    3.7946767992184821E-01
Br    8.6521195044010435E-01    1.6217647383283415E-01    4.9835898438693921E-01
Br    8.9968360308234896E-01    1.7178657432207242E-02    3.6151289386518948E-01
Br    9.9313425693269941E-01    1.5974538205307570E-01    3.7389016096180139E-01
C    2.1484184805361750E-01    4.9764271616903843E-01    4.9172269797378770E-01
N   -1.2580086484109869E-02    4.9185249467722258E-01    2.8062213306722927E-01
H    2.2002144854319297E-01    5.3228507119371138E-01    4.6110225727439463E-01
H    2.2316297503082774E-01    3.2425433733291709E-01    2.4866258650128858E-01
H    2.3913534171792059E-01    4.4137079941493246E-01    2.5820482952988844E-01
H    5.6913930344760333E-02    2.6460209464975021E-01    4.9101263080501090E-01
H    1.6802182214587093E-02    5.4104059677740002E-01    5.2924962284531507E-01
H    2.2996869850074812E-02    4.7828211800199916E-01    3.0052655792874311E-01
Pb    1.1934770496797449E-01    3.7160766402386142E-01    3.7081067246344229E-01
Br    8.8657325617732236E-02    3.6380236534004196E-01    5.0301541066842936E-01
Br    1.6227338454135262E-01    2.5806872690322069E-01    3.6863418248682600E-01
Br    2.4513816258643670E-01    3.9980734424692171E-01    3.7478594322194220E-01
C    5.0992697633408524E-01    4.8432342399976130E-01    5.0822739274280537E-01
N    2.4474961629728909E-01    5.1148647049123575E-01    1.9867684705083774E-01
H    5.3980267229179657E-01    4.9393231341831173E-01    5.3996138987033970E-01
H    5.0098089941615220E-01    2.4139467242950771E-01    1.8429984333377150E-01
H    4.9335937241436190E-01    4.4551582351821706E-01    2.1433685768997485E-01
H    2.7483145326144576E-01    2.3205910391595821E-01    4.5509839483243925E-01
H    2.6532419395121998E-01    4.7791937000478546E-01    5.6530876699659027E-01
H    2.4263740255088276E-01    5.5674151092780366E-01    1.9805245626642226E-01
Pb    3.6884608286515685E-01    3.7493545370074577E-01    3.7608010638769646E-01
Br    3.5952714557799220E-01    4.0639055888872533E-01    4.9856166869415758E-01
Br    3.5204600786255108E-01    2.4368045308345973E-01    3.9674102389086141E-01
Br    4.9475197224404704E-01    3.3010516311858673E-01    3.7347390904473426E-01
C    7.2634291233469828E-01    5.1041278697271919E-01    4.9956199108734001E-01
N    4.5296844467450520E-01    5.1934554857465642E-01    2.4808013801195439E-01
H    6.8424162963387625E-01    5.0713946366238094E-01    4.7244133108209779E-01
H    7.7796216266609319E-01    3.0442033858718326E-01    2.3150190273641985E-01
H    6.8045065792841697E-01    4.8913398290347460E-01    1.9579756535362572E-01
H    4.8505843541565091E-01    2.6698861349138264E-01    5.5124955934739694E-01
H    5.2420708333737132E-01    5.7015097005413617E-01    4.7565279952310779E-01
H    4.2260471206441380E-01    5.0418804294713937E-01    2.1993447220424733E-01
Pb    6.1686160831710279E-01    3.6957079127120263E-01    3.6917604937636966E-01
Br    5.9948450802514452E-01    3.6323976446773248E-01    4.9239065150006073E-01
Br    6.3831657514834328E-01    2.4703328534658850E-01    3.7382657664431851E-01
Br    7.4026912307819781E-01    3.9935069337311524E-01    3.5971758225694384E-01
C    9.9272077500947520E-01    4.7702466941701899E-01    4.7128098065394758E-01
N    7.2706969649521824E-01    5.1047480622062502E-01    2.6755064938892786E-01
H    9.6717991311692930E-01    4.8914976888405115E-01    4.3541440604047249E-01
H    9.7234630576127801E-01    2.3349889620241582E-01    3.0019998986760671E-01
H    9.5753884587822091E-01    5.1570817388431944E-01    1.9960427758464891E-01
H    7.9814804904263259E-01    2.5850595908576546E-01    5.5090553111401619E-01
H    7.8261995536693307E-01    5.2107120727542089E-01    4.2808166784240725E-01
H    7.5782581423913564E-01    5.4173088205281161E-01    2.6868871657958426E-01
Pb    8.6332469515062682E-01    3.7022584919190410E-01    3.6323510795489755E-01
Br    8.4998657232523456E-01    3.6324908556622060E-01    4.8886462457516683E-01
Br    8.3090180874912611E-01    2.5420074741948234E-01    3.4571000762177950E-01
Br    9.8669620531572300E-01    3.6529497948662842E-01    3.7839670138910747E-01
C    2.0186209063756644E-01    7.4683668851314755E-01    4.8221729597516194E-01
N    1.1946558877072064E-02    7.6304201250747594E-01    2.6060559890871016E-01
H    2.0165251743667628E-01    7.5914111876780110E-01    4.3747484765135891E-01
H    2.6020486587532315E-01    5.0673399715316558E-01    2.8659662336223851E-01
H    2.0320560493133960E-01    8.1658535516460806E-01    2.1579499193594129E-01
H   -5.1593013244892377E-02    5.4504719552282987E-01    5.1397085915193297E-01
H    1.1633725054014625E-02    7.7362495450902780E-01    5.5385946935774555E-01
H    4.4288493430145105E-02    7.6611401372220134E-01    2.2999996212915760E-01
Pb    1.0727556873471079E-01    6.1549704491324431E-01    3.7332684274423406E-01
Br    7.0782079505302062E-02    6.2225946890498296E-01    4.9161996074065484E-01
Br    1.0329852315222116E-01    4.9395045353454786E-01    3.6625846365736664E-01