 # Version information for this restart file 
 # current date 2021-09-10 19:22:12.382
 # current working dir /projectsp/f_rcr78_1/MW/Hybrid_Perovskite/MAPbBr3/300K_MLWF_2R
 # Program compiled at                              Fri Sep 13 14:50:45 EDT 2019
 # Program compiled on                             slepner083.amarel.rutgers.edu
 # Program compiled for                                                    local
 # Source code revision number                                       git:e35496b
 &GLOBAL
   PRINT_LEVEL  LOW
   PROJECT_NAME MPB_MD_300
   RUN_TYPE  MD
   WALLTIME 47:59:00
 &END GLOBAL
 &MOTION
   &GEO_OPT
     TYPE  MINIMIZATION
     OPTIMIZER  CG
     MAX_ITER  200
     MAX_DR     1.0000000000000000E-03
     MAX_FORCE     1.0000000000000000E-03
     RMS_DR     1.0000000000000000E-03
     RMS_FORCE     1.0000000000000000E-03
     STEP_START_VAL  0
     &CG
       MAX_STEEP_STEPS  0
       RESTART_LIMIT     9.0000000000000002E-01
     &END CG
   &END GEO_OPT
   &CELL_OPT
     STEP_START_VAL  0
   &END CELL_OPT
   &MD
     ENSEMBLE  NVT
     STEPS  5000
     TIMESTEP     9.9999999999999989E-01
     STEP_START_VAL  7071
     TIME_START_VAL     7.0709999999992888E+03
     ECONS_START_VAL    -4.0430748691912459E+03
     TEMPERATURE     3.0000000000000000E+02
     COMVEL_TOL     1.0000000000000000E-08
     &THERMOSTAT
       TYPE  CSVR
       &CSVR
         TIMECON     9.9999999999999986E+01
         &THERMOSTAT_ENERGY
              -8.6242309750535384E-01
         &END THERMOSTAT_ENERGY
         &RNG_INIT
Wiener process for Thermostat # 1        1 F T F   1.2260836588875170E+00         839963446.0        3601562216.0         845153901.0         765724778.0        1248274021.0        2661716950.0             12345.0             12345.0             12345.0             12345.0             12345.0             12345.0             12345.0             12345.0             12345.0             12345.0             12345.0             12345.0
         &END RNG_INIT
       &END CSVR
     &END THERMOSTAT
     &AVERAGES  T
       &RESTART_AVERAGES
         ITIMES_START  1
         AVECPU     2.9872152108214698E+02
         AVEHUGONIOT     0.0000000000000000E+00
         AVETEMP_BARO     0.0000000000000000E+00
         AVEPOT    -4.0432951111328348E+03
         AVEKIN     1.0779260597467488E+00
         AVETEMP     2.9585547325678942E+02
         AVEKIN_QM     0.0000000000000000E+00
         AVETEMP_QM     0.0000000000000000E+00
         AVEVOL     8.9606951177357871E+04
         AVECELL_A     4.4748714826731884E+01
         AVECELL_B     4.4748714826731884E+01
         AVECELL_C     4.4748714826731884E+01
         AVEALPHA     9.0000000000000000E+01
         AVEBETA     9.0000000000000000E+01
         AVEGAMMA     9.0000000000000000E+01
         AVE_ECONS     7.6076349447453477E+00
         AVE_PRESS     0.0000000000000000E+00
         AVE_PXX     0.0000000000000000E+00
       &END RESTART_AVERAGES
     &END AVERAGES
   &END MD
   &PRINT
     &TRAJECTORY  SILENT
       &EACH
         MD  1
       &END EACH
     &END TRAJECTORY
     &VELOCITIES  SILENT
       &EACH
         MD  1
       &END EACH
     &END VELOCITIES
     &FORCES  SILENT
       &EACH
         MD  1
       &END EACH
     &END FORCES
     &STRESS  SILENT
       &EACH
         MD  1
       &END EACH
     &END STRESS
     &RESTART  SILENT
       BACKUP_COPIES  3
       &EACH
         MD  1
       &END EACH
     &END RESTART
     &RESTART_HISTORY  SILENT
       &EACH
         MD  5
       &END EACH
     &END RESTART_HISTORY
   &END PRINT
 &END MOTION
 &FORCE_EVAL
   METHOD  QS
   &DFT
     BASIS_SET_FILE_NAME BASIS_MOLOPT
     POTENTIAL_FILE_NAME GTH_POTENTIALS
     MULTIPLICITY  1
     CHARGE  0
     &SCF
       MAX_SCF  30
       EPS_SCF     1.0000000000000001E-05
       CHOLESKY  INVERSE
       SCF_GUESS  ATOMIC
       ADDED_MOS  20
       &DIAGONALIZATION  T
         ALGORITHM  STANDARD
       &END DIAGONALIZATION
       &OUTER_SCF  T
         EPS_SCF     1.0000000000000001E-05
         MAX_SCF  10
       &END OUTER_SCF
       &SMEAR  T
         METHOD  FERMI_DIRAC
         ELECTRONIC_TEMPERATURE     5.0000000000000007E+01
       &END SMEAR
       &MIXING  T
         METHOD  BROYDEN_MIXING
         ALPHA     4.0000000000000002E-01
         BETA     5.9999999999999998E-01
         NBUFFER  8
       &END MIXING
       &PRINT
         &RESTART  OFF
         &END RESTART
       &END PRINT
     &END SCF
     &QS
       EPS_DEFAULT     1.0000000000000000E-10
       EXTRAPOLATION  ASPC
       METHOD  GPW
     &END QS
     &MGRID
       NGRIDS  4
       CUTOFF     4.5000000000000000E+02
       REL_CUTOFF     7.0000000000000000E+01
     &END MGRID
     &XC
       DENSITY_CUTOFF     1.0000000000000000E-10
       GRADIENT_CUTOFF     1.0000000000000000E-10
       TAU_CUTOFF     1.0000000000000000E-10
       &XC_FUNCTIONAL  NO_SHORTCUT
         &PBE  T
         &END PBE
       &END XC_FUNCTIONAL
     &END XC
     &POISSON
       PERIODIC  XYZ
     &END POISSON
     &LOCALIZE  T
       EPS_LOCALIZATION     1.0000000000000001E-05
       METHOD  JACOBI
       &PRINT
         &WANNIER_CENTERS  SILENT
           IONS+CENTERS  T
         &END WANNIER_CENTERS
         &WANNIER_SPREADS  SILENT
         &END WANNIER_SPREADS
       &END PRINT
     &END LOCALIZE
     &REAL_TIME_PROPAGATION
       INITIAL_WFN  SCF_WFN
     &END REAL_TIME_PROPAGATION
     &PRINT
       &MO_CUBES  SILENT
         WRITE_CUBE  F
         NLUMO  4
         NHOMO  4
         &EACH
           MD  10
         &END EACH
       &END MO_CUBES
       &E_DENSITY_CUBE  OFF
       &END E_DENSITY_CUBE
     &END PRINT
   &END DFT
   &SUBSYS
     &CELL
       A     2.3680000000000017E+01    0.0000000000000000E+00    0.0000000000000000E+00
       B     0.0000000000000000E+00    2.3680000000000017E+01    0.0000000000000000E+00
       C     0.0000000000000000E+00    0.0000000000000000E+00    2.3680000000000017E+01
       MULTIPLE_UNIT_CELL  1 1 1
     &END CELL
     &COORD
C    2.4708224038495544E-01    2.8475632738757156E-01    2.5342445666425456E-01
N    5.5336156149520992E-03    2.5453225139362889E-01    3.8897378942344470E-02
H    2.3523568164556993E-01    2.6352353547286866E-01    2.9125336541237068E-01
H    2.9520978143042248E-01   -1.5705401612194407E-02   -2.9700520492289627E-02
H    2.0175525360579422E-01    2.1309834190213370E-01   -3.7315767691118717E-02
H   -3.4250148577081120E-02   -1.5097571272201625E-02    2.9601906651591220E-01
H    1.1543131220108445E-02    3.0405363243884226E-01    2.0250843626001053E-01
H   -6.5197566591182884E-03    2.1521704618890672E-01    5.6001396866663736E-02
Pb    1.2319277364143866E-01    1.1504143495739944E-01    1.2327531783673756E-01
Br    1.4494912655298026E-01    1.2465577356984341E-01    2.5113245335931311E-01
Br    1.0162021586955124E-01   -9.1735976749379618E-03    9.3237765724709362E-02
Br    2.4425763600620573E-01    1.2887684958876683E-01    9.2861851204252180E-02
C    4.8637196443169267E-01    2.3679851552706713E-01    2.2974715311720595E-01
N    2.4022674815794498E-01    2.8804197383680791E-01    4.9546624504578302E-03
H    4.6826586260020014E-01    1.9581956166451467E-01    2.3782556274835237E-01
H    5.2527538867166357E-01   -4.1796102962751304E-02   -3.3542934795619025E-02
H    4.3669692914602276E-01    2.2275722301525733E-01   -6.6793319505434601E-03
H    2.4195251263001469E-01    6.3697777357593938E-02    2.5234242191530665E-01
H    2.0199051164583012E-01    2.7128079453373333E-01    1.7701404089740047E-01
H    2.6619370574225532E-01    2.9233300754910974E-01    4.0473566407306184E-02
Pb    3.7168167323145918E-01    1.2040166016041554E-01    1.1700590075999164E-01
Br    3.3679855567553446E-01    1.4821476650652726E-01    2.4510048169811952E-01
Br    3.5313859464409397E-01   -1.6192936230677618E-03    1.3339905887426431E-01
Br    4.9420648563837299E-01    1.0080784244608598E-01    1.3384431111193165E-01
C    7.4099363672317797E-01    2.8105642771462952E-01    2.3876793906724736E-01
N    5.0783489125621206E-01    2.4464854898945912E-01   -5.7793802871149456E-02
H    7.0310261540405694E-01    3.0064587813975829E-01    2.2273028180712665E-01
H    7.3810485676011262E-01    6.4829635413421613E-02   -1.0628196965260793E-02
H    7.8684375525943051E-01    2.8154790009607833E-01   -4.8641156400511747E-02
H    5.4914439548706240E-01   -6.3566526913563463E-03    2.0405667554664558E-01
H    5.6821317671898564E-01    2.1240471599991750E-01    2.5805136592080680E-01
H    5.4397603274387363E-01    2.7221292006142456E-01   -6.3322219331486407E-02
Pb    6.2385171856682675E-01    1.2416379588737500E-01    1.1106418335230805E-01
Br    6.3198840642308596E-01    1.2994121011773446E-01    2.3864643124143939E-01
Br    6.1209223633635446E-01   -6.1547541201025157E-03    1.0662400255148949E-01
Br    7.5251181363874942E-01    1.4847515619318602E-01    9.4345241839524627E-02
C    1.0066203538805747E+00    2.4437700284036037E-01    2.6941506262299275E-01
N    7.2099258191155768E-01    2.4945996472814175E-01    2.3676957965618477E-03
H    1.0172016912156621E+00    2.0726938393349359E-01    2.4124315894556991E-01
H    9.5767381587741318E-01   -3.6311529723830817E-02   -3.2670484951877368E-02
H    1.0045871553235641E+00    2.2885078435595332E-01   -4.7500705394486968E-02
H    7.9363312485492166E-01   -1.6616626315565111E-02    2.8967111996515754E-01
H    7.5844192880231232E-01    2.1194824249803768E-01    1.7539290420357828E-01
H    7.1517540444726291E-01    2.3293420607402820E-01    4.0659556258221076E-02
Pb    8.7862305269313701E-01    1.3064352339432164E-01    1.2994996172647957E-01
Br    8.4752518720757097E-01    1.2233462788065376E-01    2.5072848296735212E-01
Br    8.9379197258848242E-01   -1.4915928099988871E-03    1.1137002019555117E-01
Br    9.9865748835074619E-01    1.3764862897725538E-01    1.2807692518878605E-01
C    2.3316096475221404E-01    4.8618238075600195E-01    2.5656529858038435E-01
N   -5.8132956733055442E-02    5.2833563953333407E-01   -8.9938871130205798E-03
H    1.8857038590209763E-01    4.9339561754662975E-01    2.6390831950515370E-01
H    2.7217226644811393E-01    2.2256262897723927E-01   -5.4378104428063602E-02
H    2.4549465138614546E-01    4.5932776570610567E-01    2.9101595664042485E-02
H   -5.4685243238850163E-02    2.8768730462433345E-01    2.1738296494896275E-01
H   -2.4959581873717388E-02    5.2734674186162067E-01    3.0366443407162069E-01
H   -6.2703586991310470E-02    5.4234766216211627E-01    3.1643092530617770E-02
Pb    1.1035664015013415E-01    3.8173936470460862E-01    1.1524781112744681E-01
Br    9.0502213274119836E-02    3.7968366536637410E-01    2.4877677273373383E-01
Br    1.2394451683260260E-01    2.5252799491470079E-01    1.2581168377821253E-01
Br    2.4218093169756780E-01    3.8125039947299577E-01    1.2390584968311906E-01
C    5.0279981825298581E-01    4.8064948127537743E-01    2.4344675675468255E-01
N    2.2633091044806683E-01    5.4612847889244909E-01    5.5270397831052422E-03
H    5.1255579210684232E-01    4.6387612247714655E-01    2.8557881369680549E-01
H    4.9933248219255993E-01    2.3206140373134235E-01    3.3630907630621425E-02
H    4.7964139053444177E-01    5.0999360453823173E-01    5.1544567962469659E-02
H    2.6081956159137348E-01    2.2647639766289482E-01    1.8342110566600262E-01
H    2.8557569435707197E-01    5.0265006536605483E-01    1.8197730654068450E-01
H    2.5729291137077648E-01    5.7965464708820302E-01    5.4548389915327960E-03
Pb    3.6736753055449989E-01    3.6210511210940405E-01    1.2950567006356553E-01
Br    3.6759920543738328E-01    3.7107764678774419E-01    2.5279372733472211E-01
Br    3.4576527469721596E-01    2.4492534959180970E-01    9.9763775592126611E-02
Br    4.9204943717311189E-01    3.9352932687925385E-01    9.9296348475236551E-02
C    7.2344557309011670E-01    4.8457175977544253E-01    2.1080161081630383E-01
N    4.9791050563643174E-01    4.6603673376117916E-01   -2.6910079722983239E-02
H    7.3506753807384329E-01    4.3903148217421101E-01    2.1224288844215350E-01
H    7.8706703759395880E-01    3.0743244949854903E-01    2.2170776888532449E-02
H    7.7888480635991630E-01    4.8553012297631576E-01    2.0228738877826904E-02
H    5.5448239078240147E-01    2.7984539337030451E-01    2.6985892597895222E-01
H    4.3510024057223462E-01    5.1688550679528400E-01    2.8774656847890701E-01
H    5.4074365919748146E-01    4.7690007633805120E-01   -2.9119826456218644E-02
Pb    6.1013806916848590E-01    3.7326640515618548E-01    1.1178724364138881E-01
Br    6.0453656984016402E-01    3.6534284320676635E-01    2.3322973721211387E-01
Br    6.0951654813981815E-01    2.4359553811045556E-01    1.1416464837863280E-01
Br    7.3874790856871342E-01    3.5276606808056965E-01    1.1496923855539704E-01
C    9.9701908639397885E-01    4.9771174682426900E-01    2.1971546647636128E-01
N    7.4535159547771590E-01    5.2596257240372879E-01   -5.4778943562986973E-02
H    1.0088796912177518E+00    4.5661054878571461E-01    2.0522233260425446E-01
H    9.4026745650793664E-01    2.6689064176999200E-01   -2.4146581485492112E-02
H    1.0231330139323234E+00    4.9638186244240351E-01   -2.2222348124612177E-03
H    7.8530921875311854E-01    2.0369381575441636E-01    2.3742551956246161E-01
H    6.8991704382326735E-01    5.3085087858460034E-01    2.7498984748174876E-01
H    7.3972393036013995E-01    5.6401974371513763E-01   -3.5723932267196300E-02
Pb    8.6285475926879429E-01    3.8101558683693337E-01    1.0860561015876938E-01
Br    8.8301587937473192E-01    3.9759781720632309E-01    2.3685391090566382E-01
Br    8.7064795232175141E-01    2.4904898290444721E-01    1.5309668536243468E-01
Br    9.8701152790507296E-01    3.7687390371057405E-01    1.1646471182274207E-01
C    2.2237438397783599E-01    7.7491423450945118E-01    2.1678317864085214E-01
N   -2.3712464672797900E-02    7.4109318919569034E-01    4.5383141831458772E-02
H    1.8749272016703064E-01    7.4688333538696772E-01    2.0357413982883044E-01
H    2.5156778346514658E-01    4.7307535475394719E-01   -4.6317098751318821E-02
H    2.9725224092916874E-01    7.5057931889186214E-01    4.8158802100738668E-02
H   -4.3538585817508309E-02    4.6293769343180924E-01    2.8971044106120281E-01
H    6.4797306346264880E-03    7.9992948598295921E-01    2.8297696586219540E-01
H   -3.3504755502406502E-03    7.7405396406161020E-01    6.4190304797604722E-02
Pb    1.0780359271413266E-01    6.2036145890921779E-01    1.3633875514653693E-01
Br    1.5356632851215038E-01    6.2496882764027950E-01    2.4902839718674410E-01
Br    1.2875829451216600E-01    5.0168873257695390E-01    8.8472739078183010E-02
Br    2.2265191667467016E-01    6.3978621216234932E-01    1.1148518513241709E-01
C    4.8769660501290557E-01    7.2998603937162354E-01    2.3758641214923601E-01
N    2.1122635520441704E-01    7.4202612084190489E-01    1.2089453788584791E-02
H    4.4040332595977144E-01    7.3534590217530227E-01    2.4411057453314000E-01
H    4.7650671514972992E-01    5.5257788883359893E-01   -1.1061559745183825E-02
H    4.6157632807422344E-01    8.0747163016352697E-01   -3.5529657041216546E-03
H    2.1388176062359748E-01    4.9562626331115750E-01    1.6920255639698464E-01
H    2.5440499820498857E-01    7.1368909285641036E-01    2.7107521035305965E-01
H    2.0401907660821039E-01    7.1341957995140037E-01    4.2985877634196777E-02
Pb    3.5830428750831361E-01    6.2435297679388646E-01    1.2697803237140459E-01
Br    3.2828071595024311E-01    6.4149374515060431E-01    2.4366537369567631E-01
Br    3.6354024805278806E-01    4.9711603068945931E-01    1.3671311676592207E-01
Br    4.7207334230996578E-01    6.1993007183193904E-01    1.5152728210534550E-01
C    7.5410699679304327E-01    7.7311882627121531E-01    2.4355589911217621E-01
N    5.1791102866760175E-01    7.5303702939707917E-01    3.6545072096995715E-02
H    7.8878081992599858E-01    7.7996680879467128E-01    2.1355703948816565E-01
H    7.0226813924442766E-01    4.6718432627356027E-01   -5.0229453658797787E-03
H    6.7740274746293527E-01    7.5179682922599256E-01   -3.4324450685606425E-02
H    4.6037032782756482E-01    5.5907451004405762E-01    2.3111093588988665E-01
H    5.5727986792877404E-01    7.8316674084723104E-01    2.3694690762313927E-01
H    5.5271258108667776E-01    7.8339881725364169E-01    3.6098010509835243E-02
Pb    5.9912948913964925E-01    6.1157078028132472E-01    1.0143156679544831E-01
Br    6.2558053665406088E-01    5.9079846537365466E-01    2.4248572945238292E-01
Br    6.1889540381345820E-01    5.0010476273998838E-01    7.3029560770975790E-02
Br    7.2038598042307644E-01    6.1571324061552246E-01    1.1353807311201486E-01
C    9.5366970427509701E-01    7.4793516626445689E-01    2.3484131050609014E-01
N    7.6052711079392832E-01    7.6401179423316523E-01   -1.1302826700655554E-03
H    9.2518358291918024E-01    7.4190015997000769E-01    2.7133129568240244E-01
H    1.0050014890280476E+00    5.1869591098187495E-01   -7.4345106879226186E-02
H    1.0374874441052431E+00    7.3111971302390988E-01   -2.1709424564952048E-02
H    7.2940680774034816E-01    4.8105869028840087E-01    2.9928662054496891E-01
H    7.0207450122379267E-01    7.2403601409739105E-01    1.9294960919332682E-01
H    7.7882941602400946E-01    7.5832684435338094E-01    3.6956308706830233E-02
Pb    8.4710459135654981E-01    6.2576845122942482E-01    1.3275587809824185E-01
Br    8.1682225628255212E-01    6.1912821919167293E-01    2.5229068622589101E-01
Br    8.5153444048297189E-01    5.0383203278750388E-01    1.0405292657786461E-01
Br    9.7058257691978411E-01    6.1596023944014189E-01    1.1322238619805178E-01
C    2.2054805785535361E-01    9.8615948553867494E-01    2.1170639919784279E-01
N    3.4750985575341276E-03    1.0374372027852612E+00   -3.0860900570579769E-03
H    1.8706354569479286E-01    1.0107664381548649E+00    1.8845092987906945E-01
H    2.9248234368029252E-01    7.1504466215588136E-01   -2.0060933466448400E-02
H    2.5098203143848985E-01    9.3175289670175721E-01   -5.3616047396971419E-03
H    2.7797970683691449E-02    7.3549662893569512E-01    2.9100008985644660E-01
H    2.8831328680157815E-02    9.6339136649361823E-01    2.6842977877259705E-01
H   -2.4673980588460633E-02    1.0627448548559386E+00    1.7689688552230211E-02
Pb    1.0719716783690375E-01    8.7015619711802916E-01    1.1063143256395415E-01
Br    1.0888155802547092E-01    8.9436620924402088E-01    2.4169546003121853E-01
Br    9.0135810056560101E-02    7.4892435657205025E-01    1.4779067837191662E-01
Br    2.3482697855806650E-01    8.5658131818069916E-01    9.9693592924737923E-02
C    4.7801608756957925E-01    9.7335210917047377E-01    2.5428884063063678E-01
N    2.1610514577914122E-01    1.0164118938092199E+00   -8.9937073614480625E-03
H    4.4711212232811459E-01    9.8517661425867697E-01    2.2098611798303872E-01
H    4.9874430630852273E-01    7.6368045074962376E-01   -4.9650609208138595E-02
H    5.2600488851122895E-01    1.0229661321224544E+00   -6.2685403403893669E-02
H    2.8278188967736684E-01    7.7911259796804577E-01    2.8492986880546434E-01
H    2.9470662390913749E-01    1.0319169582244585E+00    2.1422756768692294E-01
H    2.1916049345134891E-01    1.0517596702281971E+00    1.0998824025595868E-02
Pb    3.6642106169826250E-01    8.7275591705289479E-01    1.1443122759568128E-01
Br    3.5956920167392320E-01    8.4812431786885079E-01    2.5050275256983828E-01
Br    3.9303746100002301E-01    7.5487523357821962E-01    1.1786104654121191E-01
Br    4.8844226463938356E-01    8.7709018625403246E-01    1.3014506414725519E-01
C    7.3697318278662804E-01    1.0108835046698770E+00    2.2851875962268098E-01
N    4.9174127128716921E-01    1.0241363430621060E+00    1.9382723637990786E-02
H    7.1430403481047477E-01    9.7335763442033929E-01    2.3278106746097940E-01
H    6.8777474711735831E-01    7.3385307723419813E-01    3.9071634653500290E-02
H    7.7735478997119523E-01    1.0378620508689680E+00    4.8578557191828596E-02
H    4.9956445448003117E-01    8.1356389406188423E-01    2.1416459683126546E-01
H    5.6083894242336796E-01    9.9946724060217407E-01    2.7612920591275714E-01
H    5.3316793537207208E-01    1.0339695553677746E+00    3.6638201922931185E-02
Pb    6.1789021733699501E-01    8.6460072188090853E-01    1.2135823710318432E-01
Br    6.1955267690629023E-01    8.8536193773076388E-01    2.4140361768526700E-01
Br    6.0995461100521420E-01    7.4137016624672536E-01    1.4607730089548016E-01
Br    7.4349305927168197E-01    8.7691276488520742E-01    9.5032430657395833E-02
C    9.9002180074720525E-01    1.0299058820204945E+00    2.2451999260366584E-01
N    7.3957465080649487E-01    9.8067148260451154E-01   -1.3063535283606946E-02
H    9.4535529140001850E-01    1.0461752728397617E+00    2.2308802654473395E-01
H    9.7117709720559586E-01    6.9517804723513876E-01   -2.9524866725722316E-02
H    9.7693549808510161E-01    9.6171405490615602E-01    3.8766289347557895E-02
H    7.4666092065261458E-01    6.8505456678522036E-01    2.3136872898245917E-01
H    7.4589863652048860E-01    1.0228558088996951E+00    3.2204066622143601E-01
H    7.3608781943242829E-01    9.4966384153272121E-01    1.7023844864004833E-02
Pb    8.6324151470658117E-01    8.8155199243170235E-01    1.2761865593655106E-01
Br    8.4776072347443010E-01    9.1712213352618965E-01    2.4859872993442847E-01
Br    8.4569845873622274E-01    7.4672182069133874E-01    1.1458867676227373E-01
Br    9.8716492365379427E-01    8.6161152862182955E-01    1.4281541070528161E-01
C    2.2060321486129641E-01    2.7156148234263899E-01    5.1233132417462313E-01
N   -1.4165371983540618E-02    2.9463337175508919E-01    2.3610120811034777E-01
H    2.1823594890531653E-01    2.7082227383079516E-01    5.5641040221521976E-01
H    1.9807933467707278E-01   -3.5665141528212679E-02    2.4389236309807338E-01
H    2.9242587924001229E-01    2.9453994807279377E-01    2.4942946531420920E-01
H    4.1133474818437876E-02    6.7838140495078596E-03    4.4591870348165885E-01
H    8.8555757013097577E-03    2.3858563308950687E-01    4.4259551873992492E-01
H   -1.5660260357492156E-02    3.2948138201103516E-01    2.5994938252369310E-01
Pb    1.2157499583884025E-01    1.3681008911142087E-01    3.6961156116618804E-01
Br    1.0164306541020957E-01    1.2425007897444379E-01    4.9672645188742837E-01
Br    9.3350077131231682E-02    1.4679556980612496E-02    3.5952210563730408E-01
Br    2.5630058505015463E-01    1.0268657384473381E-01    3.6705779728084958E-01
C    4.8757152211546068E-01    2.0717801838981165E-01    4.8524249784922235E-01
N    2.2873239550877655E-01    2.4865976410891338E-01    2.0430871471861300E-01
H    4.8989985435039446E-01    2.2465332489087875E-01    4.4178188508663191E-01
H    4.6037874291434994E-01   -1.0108399672477718E-02    2.9596833896050129E-01
H    4.5749835926299504E-01    2.7239977058742149E-01    2.3861038005510316E-01
H    2.9044265862865493E-01   -9.4787068294300541E-03    4.2524200151003583E-01
H    2.1570820708883703E-01    1.9163755969872368E-01    4.7149108960929215E-01
H    2.0216631837766461E-01    2.1890360096548467E-01    2.1908261044287683E-01
Pb    3.7551766232920208E-01    1.2474480250187608E-01    3.5702373610315152E-01
Br    3.6401039113095096E-01    1.0409260921664544E-01    5.0370148266661408E-01
Br    3.6136526129536972E-01    3.2920613832565066E-03    3.3964402459242793E-01
Br    5.0414672289000839E-01    1.0561950317774181E-01    3.5268178266526024E-01
C    7.3915383264338119E-01    2.3659277543909046E-01    4.8663617672301157E-01
N    5.3568541663425140E-01    2.3935630864416768E-01    2.6645560666488910E-01
H    7.2633163344671492E-01    1.9480496009369747E-01    5.0445568913630956E-01
H    7.7169065482182719E-01    6.8838962942734229E-03    1.9625789303338842E-01
H    7.3580008278319120E-01    2.7729906386978237E-01    2.8335005471203234E-01
H    5.2876741318525133E-01   -4.4321608354613476E-02    5.3254043105737858E-01
H    5.2900655193794788E-01    2.8583107879863490E-01    4.9637680294894154E-01
H    5.2390047861902989E-01    2.3266170702073485E-01    3.0800287181763331E-01
Pb    6.2606219637873683E-01    1.2398329500797636E-01    3.7245913517177487E-01
Br    5.9975689588443282E-01    9.3630028491812428E-02    4.9544722391815210E-01
Br    6.2052481321854935E-01   -3.6336901325006742E-03    3.5667804981384937E-01
Br    7.4161705734032113E-01    1.0255238011885096E-01    3.9513244994461327E-01
C    9.7580473437281667E-01    2.6161653439089200E-01    5.2637892499205263E-01
N    7.4897574846208470E-01    2.2011313899882004E-01    2.1911901180527274E-01
H    9.8830139035214648E-01    2.4371096785386145E-01    5.6652364496252872E-01
H    1.0010853872603100E+00    1.7316890608176785E-02    1.8104027423512861E-01
H    1.0473343332212877E+00    2.5765747312537102E-01    2.8977923179091064E-01
H    7.1035281410977946E-01    2.4830372680462117E-02    4.8716585703411652E-01
H    7.3038195012170704E-01    2.6895436098311692E-01    5.6752605578709991E-01
H    7.1638780080818465E-01    1.9530742787137073E-01    2.3192199733982616E-01
Pb    8.5900211466071497E-01    1.4303010071355454E-01    3.7941910367495590E-01
Br    8.6531642908467798E-01    1.6224901249243504E-01    4.9832970277582872E-01
Br    8.9966906954941483E-01    1.7267006604270232E-02    3.6142258360779328E-01
Br    9.9314447912663006E-01    1.5978292275631820E-01    3.7367245777311819E-01
C    2.1501602044097540E-01    4.9758501498489871E-01    4.9193329979457651E-01
N   -1.2639036617501941E-02    4.9178938639385672E-01    2.8063049002351131E-01
H    2.2012159658750985E-01    5.3159106514186849E-01    4.6009673760864606E-01
H    2.2230015639611700E-01    3.2460862653228656E-01    2.4867076718361653E-01
H    2.3898307824517856E-01    4.4158368119872365E-01    2.5736501186040822E-01
H    5.6906762886205206E-02    2.6449337057343342E-01    4.9038167113847492E-01
H    1.7880948195884191E-02    5.4127581077242970E-01    5.2850395156582675E-01
H    2.3773409759423360E-02    4.7778502227189940E-01    3.0066678380732337E-01
Pb    1.1933307048667280E-01    3.7167299294667439E-01    3.7079444123638761E-01
Br    8.8564813023014347E-02    3.6390040762972431E-01    5.0297929446747425E-01
Br    1.6233191250493642E-01    2.5795620435932898E-01    3.6860335458071714E-01
Br    2.4515070677615497E-01    3.9981995213779958E-01    3.7469872989699299E-01
C    5.0994018784805251E-01    4.8476961199969698E-01    5.0846373229893638E-01
N    2.4457149105272430E-01    5.1136905897472940E-01    1.9881704624027430E-01
H    5.3959269919274833E-01    4.9402550169367659E-01    5.4072878124812640E-01
H    5.0029573350144985E-01    2.4021400662615608E-01    1.8480594908905459E-01
H    4.9344424862577291E-01    4.4595350650231069E-01    2.1453502802738236E-01
H    2.7418464465696052E-01    2.3192852347291329E-01    4.5439980607983538E-01
H    2.6604590307192794E-01    4.7702129815981759E-01    5.6638699654478197E-01
H    2.4296985782050795E-01    5.5665423845798390E-01    1.9800089351377612E-01
Pb    3.6877673679576439E-01    3.7495679577132157E-01    3.7610109590336982E-01
Br    3.5962836735214826E-01    4.0645218440286685E-01    4.9853641726105180E-01
Br    3.5210022436471744E-01    2.4362769063803194E-01    3.9676937704212917E-01
Br    4.9465533151313051E-01    3.3013338191191394E-01    3.7355645926340669E-01
C    7.2612058799171086E-01    5.1053283294504814E-01    4.9936308097006354E-01
N    4.5321928093602354E-01    5.1905882379756796E-01    2.4788076527868216E-01
H    6.8476834343621629E-01    5.0684791909132176E-01    4.7249448487451495E-01
H    7.7832121666186682E-01    3.0503533806777705E-01    2.3030025587339550E-01
H    6.7994987536826534E-01    4.8972006424561237E-01    1.9497507135920139E-01
H    4.8470393647894572E-01    2.6656510035065761E-01    5.5099379148407490E-01
H    5.2498957438014038E-01    5.7025933014350427E-01    4.7577823165350580E-01
H    4.2217685712351138E-01    5.0365191332221060E-01    2.2010166361386882E-01
Pb    6.1684645505906610E-01    3.6957359969637832E-01    3.6911709720754649E-01
Br    5.9945276942395809E-01    3.6332475255381536E-01    4.9240550640457975E-01
Br    6.3827201132918621E-01    2.4693540711084655E-01    3.7390543720064395E-01
Br    7.4023939465378963E-01    3.9923029789731063E-01    3.5973093109372906E-01
C    9.9282266908619798E-01    4.7686653151126601E-01    4.7154796388479314E-01
N    7.2725657879044803E-01    5.1046751527034051E-01    2.6769700019853143E-01
H    9.6708826387355962E-01    4.8911332343061170E-01    4.3531101643336234E-01
H    9.7261007046801118E-01    2.3458166576185158E-01    3.0035162905205043E-01
H    9.5740457953383939E-01    5.1573850156708134E-01    1.9958433980102633E-01
H    7.9874432213935231E-01    2.5894570230369435E-01    5.5036483276435033E-01
H    7.8316508110883609E-01    5.2171485416582108E-01    4.2810439175420212E-01
H    7.5833533609541848E-01    5.4139639741634615E-01    2.6866003710997066E-01
Pb    8.6339310502008926E-01    3.7015664479314614E-01    3.6322032417227940E-01
Br    8.4984607871614282E-01    3.6330239536697551E-01    4.8897228180398944E-01
Br    8.3089173738862288E-01    2.5413291948797784E-01    3.4568080336274853E-01
Br    9.8669074960950043E-01    3.6528699290412930E-01    3.7827716779168780E-01
C    2.0205891531078876E-01    7.4699859400923763E-01    4.8217769215151046E-01
N    1.2194500745126201E-02    7.6279768264445691E-01    2.6050633332376294E-01
H    2.0159213372433582E-01    7.5896946109960084E-01    4.3775230566336532E-01
H    2.6086981156353883E-01    5.0584559975035703E-01    2.8629056543225073E-01
H    2.0314090894350562E-01    8.1674918677457886E-01    2.1649012447482041E-01
H   -5.1892978128266994E-02    5.4433908861995195E-01    5.1356079164427515E-01
H    1.1158766632515514E-02    7.7360119487039769E-01    5.5458934874647270E-01
H    4.4932533591694947E-02    7.6629589641794005E-01    2.3052790717795688E-01
Pb    1.0729728381850868E-01    6.1558104372031386E-01    3.7340765837743156E-01
Br    7.0849096047622614E-02    6.2222635626296896E-01    4.9159271048400988E-01
Br    1.0326642980498275E-01    4.9394630841132359E-01    3.6611993500140683E-01