 # Version information for this restart file 
 # current date 2021-09-10 19:09:11.141
 # current working dir /projectsp/f_rcr78_1/MW/Hybrid_Perovskite/MAPbBr3/300K_MLWF_2R
 # Program compiled at                              Fri Sep 13 14:50:45 EDT 2019
 # Program compiled on                             slepner083.amarel.rutgers.edu
 # Program compiled for                                                    local
 # Source code revision number                                       git:e35496b
 &GLOBAL
   PRINT_LEVEL  LOW
   PROJECT_NAME MPB_MD_300
   RUN_TYPE  MD
   WALLTIME 47:59:00
 &END GLOBAL
 &MOTION
   &GEO_OPT
     TYPE  MINIMIZATION
     OPTIMIZER  CG
     MAX_ITER  200
     MAX_DR     1.0000000000000000E-03
     MAX_FORCE     1.0000000000000000E-03
     RMS_DR     1.0000000000000000E-03
     RMS_FORCE     1.0000000000000000E-03
     STEP_START_VAL  0
     &CG
       MAX_STEEP_STEPS  0
       RESTART_LIMIT     9.0000000000000002E-01
     &END CG
   &END GEO_OPT
   &CELL_OPT
     STEP_START_VAL  0
   &END CELL_OPT
   &MD
     ENSEMBLE  NVT
     STEPS  5000
     TIMESTEP     9.9999999999999989E-01
     STEP_START_VAL  7070
     TIME_START_VAL     7.0699999999992888E+03
     ECONS_START_VAL    -4.0430748691912459E+03
     TEMPERATURE     3.0000000000000000E+02
     COMVEL_TOL     1.0000000000000000E-08
     &THERMOSTAT
       TYPE  CSVR
       &CSVR
         TIMECON     9.9999999999999986E+01
         &THERMOSTAT_ENERGY
              -8.6109859214725548E-01
         &END THERMOSTAT_ENERGY
         &RNG_INIT
Wiener process for Thermostat # 1        1 F T F  -1.9882696204547609E-01        3584699123.0        2275240664.0        3425798532.0        3310267309.0         413268017.0         641459105.0             12345.0             12345.0             12345.0             12345.0             12345.0             12345.0             12345.0             12345.0             12345.0             12345.0             12345.0             12345.0
         &END RNG_INIT
       &END CSVR
     &END THERMOSTAT
     &AVERAGES  T
       &RESTART_AVERAGES
         ITIMES_START  1
         AVECPU     2.9865327108766979E+02
         AVEHUGONIOT     0.0000000000000000E+00
         AVETEMP_BARO     0.0000000000000000E+00
         AVEPOT    -4.0432951061031463E+03
         AVEKIN     1.0779177016280830E+00
         AVETEMP     2.9585317922638626E+02
         AVEKIN_QM     0.0000000000000000E+00
         AVETEMP_QM     0.0000000000000000E+00
         AVEVOL     8.9606951177357871E+04
         AVECELL_A     4.4748714826731891E+01
         AVECELL_B     4.4748714826731891E+01
         AVECELL_C     4.4748714826731891E+01
         AVEALPHA     9.0000000000000000E+01
         AVEBETA     9.0000000000000000E+01
         AVEGAMMA     9.0000000000000000E+01
         AVE_ECONS     7.6076180570272873E+00
         AVE_PRESS     0.0000000000000000E+00
         AVE_PXX     0.0000000000000000E+00
       &END RESTART_AVERAGES
     &END AVERAGES
   &END MD
   &PRINT
     &TRAJECTORY  SILENT
       &EACH
         MD  1
       &END EACH
     &END TRAJECTORY
     &VELOCITIES  SILENT
       &EACH
         MD  1
       &END EACH
     &END VELOCITIES
     &FORCES  SILENT
       &EACH
         MD  1
       &END EACH
     &END FORCES
     &STRESS  SILENT
       &EACH
         MD  1
       &END EACH
     &END STRESS
     &RESTART  SILENT
       BACKUP_COPIES  3
       &EACH
         MD  1
       &END EACH
     &END RESTART
     &RESTART_HISTORY  SILENT
       &EACH
         MD  5
       &END EACH
     &END RESTART_HISTORY
   &END PRINT
 &END MOTION
 &FORCE_EVAL
   METHOD  QS
   &DFT
     BASIS_SET_FILE_NAME BASIS_MOLOPT
     POTENTIAL_FILE_NAME GTH_POTENTIALS
     MULTIPLICITY  1
     CHARGE  0
     &SCF
       MAX_SCF  30
       EPS_SCF     1.0000000000000001E-05
       CHOLESKY  INVERSE
       SCF_GUESS  ATOMIC
       ADDED_MOS  20
       &DIAGONALIZATION  T
         ALGORITHM  STANDARD
       &END DIAGONALIZATION
       &OUTER_SCF  T
         EPS_SCF     1.0000000000000001E-05
         MAX_SCF  10
       &END OUTER_SCF
       &SMEAR  T
         METHOD  FERMI_DIRAC
         ELECTRONIC_TEMPERATURE     5.0000000000000007E+01
       &END SMEAR
       &MIXING  T
         METHOD  BROYDEN_MIXING
         ALPHA     4.0000000000000002E-01
         BETA     5.9999999999999998E-01
         NBUFFER  8
       &END MIXING
       &PRINT
         &RESTART  OFF
         &END RESTART
       &END PRINT
     &END SCF
     &QS
       EPS_DEFAULT     1.0000000000000000E-10
       EXTRAPOLATION  ASPC
       METHOD  GPW
     &END QS
     &MGRID
       NGRIDS  4
       CUTOFF     4.5000000000000000E+02
       REL_CUTOFF     7.0000000000000000E+01
     &END MGRID
     &XC
       DENSITY_CUTOFF     1.0000000000000000E-10
       GRADIENT_CUTOFF     1.0000000000000000E-10
       TAU_CUTOFF     1.0000000000000000E-10
       &XC_FUNCTIONAL  NO_SHORTCUT
         &PBE  T
         &END PBE
       &END XC_FUNCTIONAL
     &END XC
     &POISSON
       PERIODIC  XYZ
     &END POISSON
     &LOCALIZE  T
       EPS_LOCALIZATION     1.0000000000000001E-05
       METHOD  JACOBI
       &PRINT
         &WANNIER_CENTERS  SILENT
           IONS+CENTERS  T
         &END WANNIER_CENTERS
         &WANNIER_SPREADS  SILENT
         &END WANNIER_SPREADS
       &END PRINT
     &END LOCALIZE
     &REAL_TIME_PROPAGATION
       INITIAL_WFN  SCF_WFN
     &END REAL_TIME_PROPAGATION
     &PRINT
       &MO_CUBES  SILENT
         WRITE_CUBE  F
         NLUMO  4
         NHOMO  4
         &EACH
           MD  10
         &END EACH
       &END MO_CUBES
       &E_DENSITY_CUBE  OFF
       &END E_DENSITY_CUBE
     &END PRINT
   &END DFT
   &SUBSYS
     &CELL
       A     2.3680000000000017E+01    0.0000000000000000E+00    0.0000000000000000E+00
       B     0.0000000000000000E+00    2.3680000000000017E+01    0.0000000000000000E+00
       C     0.0000000000000000E+00    0.0000000000000000E+00    2.3680000000000017E+01
       MULTIPLE_UNIT_CELL  1 1 1
     &END CELL
     &COORD
C    2.4717310551155952E-01    2.8444998190689907E-01    2.5355091175340894E-01
N    5.2632182277916710E-03    2.5448298849874096E-01    3.8847994758559774E-02
H    2.3428299671213090E-01    2.6291963815621616E-01    2.9172879049901962E-01
H    2.9500569218775424E-01   -1.5686911411250958E-02   -2.9325943459487806E-02
H    2.0227859432638487E-01    2.1207982714617143E-01   -3.7623337045963559E-02
H   -3.4019032252193958E-02   -1.5055267603273911E-02    2.9671108338435120E-01
H    1.1601812796832846E-02    3.0381427922718562E-01    2.0199116506477155E-01
H   -6.1840744260485744E-03    2.1511634220560821E-01    5.4587284086609539E-02
Pb    1.2313030350375406E-01    1.1498167916695276E-01    1.2334658555915871E-01
Br    1.4494341049046383E-01    1.2467104474370309E-01    2.5113707787692696E-01
Br    1.0173438149070627E-01   -9.1277178827434691E-03    9.3321300908247515E-02
Br    2.4417337516397652E-01    1.2894268815894339E-01    9.2854731087464212E-02
C    4.8650054570560747E-01    2.3690940581126824E-01    2.2963205461991407E-01
N    2.4017273357941893E-01    2.8804730137671469E-01    4.8689185230538336E-03
H    4.6789301301940417E-01    1.9547447913993587E-01    2.3673378706077419E-01
H    5.2570490756632127E-01   -4.2171691177744011E-02   -3.2657587744185777E-02
H    4.3666762536844966E-01    2.2264318003035088E-01   -6.3442178272948074E-03
H    2.4258871651732397E-01    6.3924364186831589E-02    2.5177075093142171E-01
H    2.0196425061253839E-01    2.7075514870537715E-01    1.7833024519894072E-01
H    2.6585848732792683E-01    2.9264860386727432E-01    4.0776567290521877E-02
Pb    3.7169152987348175E-01    1.2035047257690670E-01    1.1710487255694892E-01
Br    3.3671640490306887E-01    1.4828228974678967E-01    2.4527240317879620E-01
Br    3.5316611835848793E-01   -1.6027928558865930E-03    1.3331915589120824E-01
Br    4.9416150434905692E-01    1.0082990723652442E-01    1.3379113536315573E-01
C    7.4089947771879072E-01    2.8110235723058169E-01    2.3850764165356497E-01
N    5.0773082198601382E-01    2.4460152842319979E-01   -5.7715663861542831E-02
H    7.0358029501565389E-01    3.0039964097583083E-01    2.2244034474218558E-01
H    7.3967558054521121E-01    6.4681212181941061E-02   -1.0052857256471797E-02
H    7.8603424277210876E-01    2.8097719356772449E-01   -4.8341986008034001E-02
H    5.4826300542425843E-01   -5.7573914947129257E-03    2.0393033575630443E-01
H    5.6819100487522667E-01    2.1133505396438806E-01    2.5857120018807944E-01
H    5.4367191478216748E-01    2.7239315036760819E-01   -6.3699528322209237E-02
Pb    6.2379522554366673E-01    1.2416227877568746E-01    1.1105960266472038E-01
Br    6.3199045225251127E-01    1.2991736565798229E-01    2.3852606767310816E-01
Br    6.1201313539486690E-01   -6.0726890166767260E-03    1.0662995776902932E-01
Br    7.5250770937799638E-01    1.4845369840972159E-01    9.4494105419574509E-02
C    1.0065378641430551E+00    2.4439856079110053E-01    2.6941656145020509E-01
N    7.2101876993335168E-01    2.4920300482596267E-01    2.1710023585342153E-03
H    1.0171323499690712E+00    2.0767786427170198E-01    2.4128380946720412E-01
H    9.5734478191943406E-01   -3.5944731160249564E-02   -3.2629538686673919E-02
H    1.0044257793426390E+00    2.2919210078926641E-01   -4.7312806778020515E-02
H    7.9220023198366440E-01   -1.5237855295638876E-02    2.8990362650785989E-01
H    7.5816841193774687E-01    2.1259289165923823E-01    1.7636986660401574E-01
H    7.1502880055428220E-01    2.3295983056586286E-01    4.0323575877302786E-02
Pb    8.7855880237773498E-01    1.3067425133062716E-01    1.2996905860845501E-01
Br    8.4756270370746922E-01    1.2217068444611956E-01    2.5077116346795320E-01
Br    8.9372793279981466E-01   -1.4786201871951619E-03    1.1137897103840165E-01
Br    9.9874278483723766E-01    1.3757761630597815E-01    1.2817195801058415E-01
C    2.3294519200984060E-01    4.8632824207642761E-01    2.5663677516919331E-01
N   -5.7794164414626793E-02    5.2829537358605183E-01   -9.1133009310569377E-03
H    1.8813748873791358E-01    4.9382216025220216E-01    2.6478467384722965E-01
H    2.7083420293847932E-01    2.2261257057985970E-01   -5.4426711382055321E-02
H    2.4511377452658512E-01    4.5791517802272330E-01    2.8531818340426410E-02
H   -5.3815469387428358E-02    2.8734119979644590E-01    2.1848952135549476E-01
H   -2.4483733769428164E-02    5.2710404859333659E-01    3.0372794916773732E-01
H   -6.3098191442690549E-02    5.4178397179237170E-01    3.1193365217056714E-02
Pb    1.1035649552388306E-01    3.8174716507734335E-01    1.1516668198848022E-01
Br    9.0404670114037924E-02    3.7967877943328660E-01    2.4892588972013099E-01
Br    1.2393333276845077E-01    2.5265541533579072E-01    1.2592895923821620E-01
Br    2.4219436943325998E-01    3.8123568926596541E-01    1.2393066868194529E-01
C    5.0278931848376929E-01    4.8054299953941343E-01    2.4338305938405727E-01
N    2.2640013063447109E-01    5.4615501981799608E-01    5.5894850666954815E-03
H    5.1238158482437202E-01    4.6315903555470633E-01    2.8576920143834067E-01
H    5.0108526355185268E-01    2.3149480990589472E-01    3.4144550852909870E-02
H    4.7997075752265944E-01    5.1061088898029061E-01    5.1917704408132620E-02
H    2.6130579723824265E-01    2.2565889127434766E-01    1.8308860015286607E-01
H    2.8442136322315792E-01    5.0270834133478282E-01    1.8336189067949110E-01
H    2.5684436503401614E-01    5.8008107452335278E-01    5.4903930482474257E-03
Pb    3.6732580529708586E-01    3.6215958386775193E-01    1.2950395259573938E-01
Br    3.6756457080466043E-01    3.7104781193521469E-01    2.5283286748557865E-01
Br    3.4586362727023179E-01    2.4491843127899962E-01    9.9697738651726528E-02
Br    4.9205485973935392E-01    3.9366446588248155E-01    9.9200109086396066E-02
C    7.2358444467706629E-01    4.8475381688031854E-01    2.1071875431974266E-01
N    4.9766822273789108E-01    4.6581882134209546E-01   -2.7134385291645739E-02
H    7.3434857410466459E-01    4.3886719069064678E-01    2.1211729785046843E-01
H    7.8590705791501392E-01    3.0781218692211187E-01    2.1833807987943422E-02
H    7.8084737482775335E-01    4.8550886340288946E-01    1.9808610678977774E-02
H    5.5405909773925544E-01    2.7941223243326924E-01    2.6924915332458632E-01
H    4.3627591850211278E-01    5.1798368648432047E-01    2.8774976558439108E-01
H    5.4148557710070511E-01    4.7598869127645338E-01   -2.8810022381232307E-02
Pb    6.1010129292154391E-01    3.7326477502773148E-01    1.1180121514610035E-01
Br    6.0461356873466343E-01    3.6540021038463411E-01    2.3321638742583087E-01
Br    6.0935375796926639E-01    2.4355035014894263E-01    1.1412324325002914E-01
Br    7.3877123553324653E-01    3.5281487223000146E-01    1.1483098031779042E-01
C    9.9698330183250794E-01    4.9777105104432673E-01    2.1945632460163966E-01
N    7.4560848263193913E-01    5.2589754539157141E-01   -5.5033309929897190E-02
H    1.0084680157540111E+00    4.5737995866988446E-01    2.0497991254077250E-01
H    9.4020252865123177E-01    2.6757498492260173E-01   -2.4761458812750284E-02
H    1.0228788988265753E+00    4.9714697549428916E-01   -2.9106886860067330E-03
H    7.8496761752097577E-01    2.0483482354115101E-01    2.3810076129740360E-01
H    6.9043745545836421E-01    5.3075686543485812E-01    2.7498179166139280E-01
H    7.3954923911885062E-01    5.6457803158311748E-01   -3.5488118066710837E-02
Pb    8.6284475989916831E-01    3.8102466188383738E-01    1.0858639541468476E-01
Br    8.8312461763553862E-01    3.9756917902562722E-01    2.3700076161461273E-01
Br    8.7054682955707829E-01    2.4905429797237041E-01    1.5290133340225034E-01
Br    9.8701537519931870E-01    3.7690473748498987E-01    1.1649577674062991E-01
C    2.2252725417984828E-01    7.7519720455223584E-01    2.1695967063211138E-01
N   -2.3543079018175893E-02    7.4120459600435540E-01    4.5258265731548036E-02
H    1.8949386449338620E-01    7.4575064973489646E-01    2.0383143339486592E-01
H    2.5005612402204580E-01    4.7327695788331126E-01   -4.6450456891816670E-02
H    2.9567514476035867E-01    7.5019710447209587E-01    4.7413977691885337E-02
H   -4.2659381947961608E-02    4.6228062718429236E-01    2.8994675647827722E-01
H    6.9518056051869268E-03    8.0038730645238809E-01    2.8320023617263540E-01
H   -2.4870266441485121E-03    7.7420741252631009E-01    6.5696373742474876E-02
Pb    1.0784497097653607E-01    6.2034891368140288E-01    1.3628367484995846E-01
Br    1.5346025065408153E-01    6.2491815142814622E-01    2.4899017608946955E-01
Br    1.2867733183605862E-01    5.0160268370029937E-01    8.8372018290612322E-02
Br    2.2269404680318447E-01    6.3978872547736254E-01    1.1141002869492131E-01
C    4.8809550354876413E-01    7.2979551038193968E-01    2.3748278447089230E-01
N    2.1124162211307232E-01    7.4232712967677450E-01    1.1907092252803985E-02
H    4.4088337528016824E-01    7.3547624513780296E-01    2.4482529518256280E-01
H    4.7614635511848719E-01    5.5301956474503267E-01   -1.1471439575672586E-02
H    4.6172328736528978E-01    8.0765563093932846E-01   -3.9343906608718887E-03
H    2.1239621973561096E-01    4.9567063111571608E-01    1.6884974036996597E-01
H    2.5522908717516424E-01    7.1403171989192116E-01    2.7057597239347497E-01
H    2.0347134300443631E-01    7.1317528749968284E-01    4.2877054320036814E-02
Pb    3.5826849763012092E-01    6.2431029336307953E-01    1.2698454963000111E-01
Br    3.2830689846087774E-01    6.4161765028661710E-01    2.4376120170041374E-01
Br    3.6344988757573410E-01    4.9707544564095690E-01    1.3665598588392783E-01
Br    4.7190457705711508E-01    6.2003377272741944E-01    1.5153853397765985E-01
C    7.5428169728107752E-01    7.7325962171698615E-01    2.4340998009213602E-01
N    5.1817490663621291E-01    7.5322328457873244E-01    3.6705617560521868E-02
H    7.8859579084447429E-01    7.7947546198416817E-01    2.1349252407483460E-01
H    7.0325966492882452E-01    4.6688392624588715E-01   -5.3267854267936652E-03
H    6.7737807321129506E-01    7.5163885352998494E-01   -3.3894909796688702E-02
H    4.5994945526235864E-01    5.5950098579155327E-01    2.3146697483517575E-01
H    5.5781673368998475E-01    7.8300749759919164E-01    2.3738191614723816E-01
H    5.5261791190789178E-01    7.8249746197373460E-01    3.6223672855477916E-02
Pb    5.9921483925958252E-01    6.1157791618011748E-01    1.0144010920960732E-01
Br    6.2548402305059225E-01    5.9074965885892761E-01    2.4257320463037160E-01
Br    6.1882407138738471E-01    5.0011243760729518E-01    7.3080917378415503E-02
Br    7.2029281842828963E-01    6.1558988333445819E-01    1.1347269177877958E-01
C    9.5353317970776097E-01    7.4770838397078210E-01    2.3482995889421882E-01
N    7.6034085178940880E-01    7.6400993309856136E-01   -1.7152694176267198E-03
H    9.2621681794717503E-01    7.4259493671422516E-01    2.7177610658415319E-01
H    1.0041994852697311E+00    5.1987025727835745E-01   -7.3787871999028143E-02
H    1.0366103282341843E+00    7.3049144996454973E-01   -2.2762578991913852E-02
H    7.3097633215139290E-01    4.8048564409101152E-01    2.9916128425418032E-01
H    7.0067732230756108E-01    7.2376749989826905E-01    1.9290617463411680E-01
H    7.7921864830429188E-01    7.5801006201305043E-01    3.8429846839852552E-02
Pb    8.4719672547753688E-01    6.2581994409162045E-01    1.3277514439433827E-01
Br    8.1697425658684975E-01    6.1913264170952387E-01    2.5226432117849112E-01
Br    8.5155725529647663E-01    5.0380931768685577E-01    1.0407441983619667E-01
Br    9.7042831765378079E-01    6.1609733729627192E-01    1.1327260136620583E-01
C    2.2049374521787238E-01    9.8620148630006454E-01    2.1198871558979973E-01
N    3.4420398546688999E-03    1.0372868583573713E+00   -3.2593671736754841E-03
H    1.8801603808570047E-01    1.0115841574565356E+00    1.8852089618656800E-01
H    2.9233606350334551E-01    7.1416013627840191E-01   -2.0007138980888076E-02
H    2.5017910077407945E-01    9.3148443033845707E-01   -4.7734155927447496E-03
H    2.7871259210747731E-02    7.3553454146512187E-01    2.9092791450791916E-01
H    2.7660614331300577E-02    9.6308755987261596E-01    2.6968007885679168E-01
H   -2.4851521424459858E-02    1.0626842710539832E+00    1.6858673383462273E-02
Pb    1.0718411729222388E-01    8.7015389796893416E-01    1.1059575711694081E-01
Br    1.0882501770897327E-01    8.9424298342431163E-01    2.4167758193649344E-01
Br    9.0178427173824363E-02    7.4886783811151514E-01    1.4789301569884505E-01
Br    2.3488525043748251E-01    8.5657312275265518E-01    9.9746110233600152E-02
C    4.7828362408356034E-01    9.7337813664988082E-01    2.5427920234610663E-01
N    2.1570210749452529E-01    1.0163228218581215E+00   -8.7490918364636835E-03
H    4.4730972391808643E-01    9.8579353126537583E-01    2.2003061058035353E-01
H    4.9905196272752961E-01    7.6347951144295734E-01   -5.0159116444831876E-02
H    5.2655305401117514E-01    1.0226568170721118E+00   -6.2276878091990964E-02
H    2.8253771022764329E-01    7.7930985074784365E-01    2.8427664603894987E-01
H    2.9460468098317244E-01    1.0310992476997625E+00    2.1432512679147078E-01
H    2.1911552734382780E-01    1.0529087716162961E+00    1.0515901564790547E-02
Pb    3.6634794401230136E-01    8.7273100923746483E-01    1.1440175595947075E-01
Br    3.5956772304738277E-01    8.4824838433216643E-01    2.5049822532633886E-01
Br    3.9307273754810435E-01    7.5476165038724574E-01    1.1787572742411219E-01
Br    4.8850209941358869E-01    8.7699777021571690E-01    1.3016980735523620E-01
C    7.3682116980623891E-01    1.0112805711421020E+00    2.2865079000960181E-01
N    4.9180309440956999E-01    1.0241843995208950E+00    1.9238317607235256E-02
H    7.1447291278114045E-01    9.7246195886186504E-01    2.3298434692888764E-01
H    6.8849311938516533E-01    7.3448127590926537E-01    3.8445070764356236E-02
H    7.7852384828126131E-01    1.0378534363183136E+00    4.8681581253441707E-02
H    4.9882714978102327E-01    8.1438870099490968E-01    2.1452036210052822E-01
H    5.6028040466077822E-01    1.0003525721678710E+00    2.7673922590080691E-01
H    5.3228621194883274E-01    1.0331009132559117E+00    3.6486637819067046E-02
Pb    6.1785795730510762E-01    8.6459635756913078E-01    1.2122665843052893E-01
Br    6.1943355326240535E-01    8.8533213724736515E-01    2.4126908127914087E-01
Br    6.1003105506392896E-01    7.4131262716176938E-01    1.4597638282462364E-01
Br    7.4349735062875999E-01    8.7707018193864839E-01    9.5040740717885458E-02
C    9.9011184847122169E-01    1.0296017527111501E+00    2.2422159173354950E-01
N    7.3957819833505645E-01    9.8075044960774937E-01   -1.2794095370143161E-02
H    9.4620188112916492E-01    1.0468103120938885E+00    2.2325747231426507E-01
H    9.7132601928083384E-01    6.9538778782966182E-01   -3.0008407748857244E-02
H    9.7734904390494892E-01    9.6187806446363366E-01    3.8141508797043186E-02
H    7.4695653986954313E-01    6.8561624927539389E-01    2.3133429154450713E-01
H    7.4515715512896818E-01    1.0222089340418057E+00    3.2219765650399035E-01
H    7.3484469499996652E-01    9.5058692909137976E-01    1.5849630247736734E-02
Pb    8.6339765208660402E-01    8.8150288816314371E-01    1.2755923402129837E-01
Br    8.4776128917485727E-01    9.1701046601432257E-01    2.4854763045743336E-01
Br    8.4565282223837956E-01    7.4677164950961539E-01    1.1459711326114674E-01
Br    9.8702040931139734E-01    8.6156753856837431E-01    1.4277651448162221E-01
C    2.2045816056107229E-01    2.7154265074932743E-01    5.1229094359288108E-01
N   -1.4234075815053867E-02    2.9474558327244404E-01    2.3591765640312373E-01
H    2.1839814183076969E-01    2.7218916744213634E-01    5.5567209246614668E-01
H    1.9817928300050830E-01   -3.6115232566209687E-02    2.4469266108139207E-01
H    2.9165397213368238E-01    2.9499619885370204E-01    2.5008496563390004E-01
H    4.0969586805785996E-02    6.0779328936800435E-03    4.4606926125884605E-01
H    1.0093130840961860E-02    2.3831228968040025E-01    4.4229340783562393E-01
H   -1.5527487001130798E-02    3.2972385975674628E-01    2.6018036727411192E-01
Pb    1.2159048886995942E-01    1.3681623348954930E-01    3.6962982095606739E-01
Br    1.0182009068746450E-01    1.2431128333510698E-01    4.9664757052970665E-01
Br    9.3308576681776903E-02    1.4487181136847898E-02    3.5952774237308083E-01
Br    2.5624854047561824E-01    1.0267067181269025E-01    3.6696845478493345E-01
C    4.8779944745164278E-01    2.0727004190401577E-01    4.8496781889438845E-01
N    2.2877497189578624E-01    2.4852541903912259E-01    2.0449396576043491E-01
H    4.9028961380015806E-01    2.2451639063900511E-01    4.4179900444855330E-01
H    4.6131770507178355E-01   -8.9374475404242412E-03    2.9472676502115758E-01
H    4.5863450551029272E-01    2.7282774717340003E-01    2.3855234282208723E-01
H    2.9005297664693058E-01   -1.0147898424150984E-02    4.2465873229861634E-01
H    2.1561154755750411E-01    1.9237258769160509E-01    4.7161929375281786E-01
H    2.0280309630420848E-01    2.1858424954099870E-01    2.1909550235889494E-01
Pb    3.7547591315645545E-01    1.2467377686903131E-01    3.5710803707603300E-01
Br    3.6412541363691159E-01    1.0400429921183521E-01    5.0365955410568419E-01
Br    3.6125682380467816E-01    3.1803518859028581E-03    3.3955445338858437E-01
Br    5.0416160237972019E-01    1.0565317374052510E-01    3.5263527700759661E-01
C    7.3927204754634157E-01    2.3672303303725967E-01    4.8684812843012887E-01
N    5.3598357140856212E-01    2.3922119695375832E-01    2.6614889948896847E-01
H    7.2710457493569514E-01    1.9593391341382049E-01    5.0418984791875543E-01
H    7.7160025180694536E-01    7.7281249233644572E-03    1.9732181298272886E-01
H    7.3604864709265161E-01    2.7690813022308830E-01    2.8195916715483771E-01
H    5.2797745592885637E-01   -4.3745245314129211E-02    5.3302901482650111E-01
H    5.2937106291947389E-01    2.8583498246432287E-01    4.9586536174955287E-01
H    5.2386087816461557E-01    2.3386409430511829E-01    3.0709853323150343E-01
Pb    6.2604626417065368E-01    1.2393973286390017E-01    3.7257569743169439E-01
Br    5.9960912183513881E-01    9.3561938544562046E-02    4.9539570022771823E-01
Br    6.2058658974723746E-01   -3.4804066101542051E-03    3.5673678352413307E-01
Br    7.4166132307350996E-01    1.0242796161384631E-01    3.9516822592679640E-01
C    9.7603711462288234E-01    2.6172028868159036E-01    5.2634096479353398E-01
N    7.4896241242984152E-01    2.2037119736033292E-01    2.1941515073846549E-01
H    9.8802028164727196E-01    2.4442419910115420E-01    5.6651550575088760E-01
H    1.0000772920263412E+00    1.6862352320963080E-02    1.8082218337186637E-01
H    1.0470859570271178E+00    2.5783626423916262E-01    2.8971594664909911E-01
H    7.0975693984044541E-01    2.5309449982836737E-02    4.8753767549271398E-01
H    7.3231627668263266E-01    2.6835580212415266E-01    5.6741336566588418E-01
H    7.1619861754349701E-01    1.9595112576499041E-01    2.3278931697481303E-01
Pb    8.5901173187156676E-01    1.4306148664856105E-01    3.7937038058239897E-01
Br    8.6542107796612666E-01    1.6232092047621541E-01    4.9830185359410117E-01
Br    8.9965435501316626E-01    1.7353610124507417E-02    3.6133379384886810E-01
Br    9.9315524129606603E-01    1.5981890413114191E-01    3.7345661464158209E-01
C    2.1522709502545925E-01    4.9753462614604982E-01    4.9212132557309762E-01
N   -1.2692011285339054E-02    4.9171941527727575E-01    2.8067883460525711E-01
H    2.2006563739844179E-01    5.3071186537833737E-01    4.5919083289257856E-01
H    2.2164014348084951E-01    3.2475250819673923E-01    2.4881730210401784E-01
H    2.3902515037983527E-01    4.4140520637551506E-01    2.5635741162610853E-01
H    5.6406740496494114E-02    2.6434808841039614E-01    4.8958750531504797E-01
H    1.8633509698887246E-02    5.4126033396935613E-01    5.2776887598695110E-01
H    2.4553992097182391E-02    4.7728662389781851E-01    3.0080968918514445E-01
Pb    1.1931868436312786E-01    3.7173800520815298E-01    3.7077870078925451E-01
Br    8.8474145305836277E-02    3.6399670065042433E-01    5.0294166760110837E-01
Br    1.6238917390373875E-01    2.5784142136135957E-01    3.6857368396740475E-01
Br    2.4516239872776266E-01    3.9983205396873572E-01    3.7461163988585933E-01
C    5.0994456541595523E-01    4.8523896340682532E-01    5.0861385190712571E-01
N    2.4437802987029997E-01    5.1126297125550479E-01    1.9892925117831844E-01
H    5.3954871219209977E-01    4.9427101080270808E-01    5.4193560691364639E-01
H    4.9955411902488228E-01    2.3897059936590959E-01    1.8557327053292591E-01
H    4.9361468188275975E-01    4.4645071096497513E-01    2.1468094365345486E-01
H    2.7339213968864767E-01    2.3156720920816726E-01    4.5383379597253304E-01
H    2.6654746778848643E-01    4.7638946174492092E-01    5.6698358609821509E-01
H    2.4315381106198480E-01    5.5603675711781209E-01    1.9810223799955318E-01
Pb    3.6870766852963899E-01    3.7497711411462842E-01    3.7612244818689178E-01
Br    3.5972998151254904E-01    4.0651342284502168E-01    4.9851227619916572E-01
Br    3.5215392623762132E-01    2.4357665513055066E-01    3.9679769238240387E-01
Br    4.9455889359557592E-01    3.3016171259948840E-01    3.7363865285658027E-01
C    7.2588914416696082E-01    5.1065619385168770E-01    4.9909844674612946E-01
N    4.5343687428951657E-01    5.1875335992206972E-01    2.4764582292692666E-01
H    6.8594301759400267E-01    5.0688161609749705E-01    4.7307177377738407E-01
H    7.7891898200349907E-01    3.0578555225525117E-01    2.2894723579808007E-01
H    6.7949215492969162E-01    4.9019652125787000E-01    1.9429093356767210E-01
H    4.8467444079164546E-01    2.6607103835715235E-01    5.5065198882586686E-01
H    5.2596408576081888E-01    5.7034701521289977E-01    4.7604704987203988E-01
H    4.2179560745209060E-01    5.0318619835596679E-01    2.2038192576169527E-01
Pb    6.1683072367602321E-01    3.6957636608163585E-01    3.6905774966480004E-01
Br    5.9942152859736497E-01    3.6340916257861205E-01    4.9241944217068523E-01
Br    6.3822773111382713E-01    2.4683632602328112E-01    3.7398340555860787E-01
Br    7.4020939890347937E-01    3.9910982430828368E-01    3.5974361458686255E-01
C    9.9295877953460887E-01    4.7670331939076238E-01    4.7178891510209792E-01
N    7.2745307281530958E-01    5.1046393974344650E-01    2.6782360485059814E-01
H    9.6677239664487724E-01    4.8899964620253866E-01    4.3531782273829350E-01
H    9.7320765407072085E-01    2.3566562525591558E-01    3.0032095717964180E-01
H    9.5757524656295157E-01    5.1536560700097767E-01    1.9972450058431976E-01
H    7.9967981609044225E-01    2.5882479009939258E-01    5.5006443054850418E-01
H    7.8361064596675989E-01    5.2229567833994839E-01    4.2821467937212149E-01
H    7.5890743617453416E-01    5.4096743525473656E-01    2.6879246009617208E-01
Pb    8.6346146570408511E-01    3.7008821438452161E-01    3.6320572344977264E-01
Br    8.4970594059795890E-01    3.6335599045263611E-01    4.8908078621845619E-01
Br    8.3088167827919213E-01    2.5406542007635202E-01    3.4565149130605100E-01
Br    9.8668615122372128E-01    3.6527783202716418E-01    3.7815706108393476E-01
C    2.0219178419789965E-01    7.4714543057180371E-01    4.8213235351497091E-01
N    1.2421628219402363E-02    7.6254811870134076E-01    2.6040391711533384E-01
H    2.0169641536634564E-01    7.5908280181920185E-01    4.3804344586385907E-01
H    2.6162775530296162E-01    5.0513979658893837E-01    2.8625434891350193E-01
H    2.0317882540376322E-01    8.1702357585666829E-01    2.1742370724713533E-01
H   -5.1835701974220445E-02    5.4320623199329798E-01    5.1331612656659276E-01
H    1.1041640270199139E-02    7.7383852468969694E-01    5.5589856510249025E-01
H    4.5342932176232115E-02    7.6655049588509561E-01    2.3108054137027284E-01
Pb    1.0731877099781237E-01    6.1566543131496698E-01    3.7348736449800840E-01
Br    7.0916222455132877E-02    6.2219335771505568E-01    4.9156591440273295E-01
Br    1.0323448514488209E-01    4.9394452040236747E-01    3.6598142916001553E-01