 # Version information for this restart file 
 # current date 2021-09-10 19:47:30.628
 # current working dir /projectsp/f_rcr78_1/MW/Hybrid_Perovskite/MAPbBr3/300K_MLWF_2R
 # Program compiled at                              Fri Sep 13 14:50:45 EDT 2019
 # Program compiled on                             slepner083.amarel.rutgers.edu
 # Program compiled for                                                    local
 # Source code revision number                                       git:e35496b
 &GLOBAL
   PRINT_LEVEL  LOW
   PROJECT_NAME MPB_MD_300
   RUN_TYPE  MD
   WALLTIME 47:59:00
 &END GLOBAL
 &MOTION
   &GEO_OPT
     TYPE  MINIMIZATION
     OPTIMIZER  CG
     MAX_ITER  200
     MAX_DR     1.0000000000000000E-03
     MAX_FORCE     1.0000000000000000E-03
     RMS_DR     1.0000000000000000E-03
     RMS_FORCE     1.0000000000000000E-03
     STEP_START_VAL  0
     &CG
       MAX_STEEP_STEPS  0
       RESTART_LIMIT     9.0000000000000002E-01
     &END CG
   &END GEO_OPT
   &CELL_OPT
     STEP_START_VAL  0
   &END CELL_OPT
   &MD
     ENSEMBLE  NVT
     STEPS  5000
     TIMESTEP     9.9999999999999989E-01
     STEP_START_VAL  7073
     TIME_START_VAL     7.0729999999992888E+03
     ECONS_START_VAL    -4.0430748691912459E+03
     TEMPERATURE     3.0000000000000000E+02
     COMVEL_TOL     1.0000000000000000E-08
     &THERMOSTAT
       TYPE  CSVR
       &CSVR
         TIMECON     9.9999999999999986E+01
         &THERMOSTAT_ENERGY
              -8.6279227615816378E-01
         &END THERMOSTAT_ENERGY
         &RNG_INIT
Wiener process for Thermostat # 1        1 F T F   1.9233508515673892E-01         688396333.0        1543335880.0        3754525402.0        3284095394.0        3302667908.0        3403273855.0             12345.0             12345.0             12345.0             12345.0             12345.0             12345.0             12345.0             12345.0             12345.0             12345.0             12345.0             12345.0
         &END RNG_INIT
       &END CSVR
     &END THERMOSTAT
     &AVERAGES  T
       &RESTART_AVERAGES
         ITIMES_START  1
         AVECPU     2.9885170664045904E+02
         AVEHUGONIOT     0.0000000000000000E+00
         AVETEMP_BARO     0.0000000000000000E+00
         AVEPOT    -4.0432951174541386E+03
         AVEKIN     1.0779405459026858E+00
         AVETEMP     2.9585944923313929E+02
         AVEKIN_QM     0.0000000000000000E+00
         AVETEMP_QM     0.0000000000000000E+00
         AVEVOL     8.9606951177357871E+04
         AVECELL_A     4.4748714826731884E+01
         AVECELL_B     4.4748714826731884E+01
         AVECELL_C     4.4748714826731884E+01
         AVEALPHA     9.0000000000000000E+01
         AVEBETA     9.0000000000000000E+01
         AVEGAMMA     9.0000000000000000E+01
         AVE_ECONS     7.6077617493491259E+00
         AVE_PRESS     0.0000000000000000E+00
         AVE_PXX     0.0000000000000000E+00
       &END RESTART_AVERAGES
     &END AVERAGES
   &END MD
   &PRINT
     &TRAJECTORY  SILENT
       &EACH
         MD  1
       &END EACH
     &END TRAJECTORY
     &VELOCITIES  SILENT
       &EACH
         MD  1
       &END EACH
     &END VELOCITIES
     &FORCES  SILENT
       &EACH
         MD  1
       &END EACH
     &END FORCES
     &STRESS  SILENT
       &EACH
         MD  1
       &END EACH
     &END STRESS
     &RESTART  SILENT
       BACKUP_COPIES  3
       &EACH
         MD  1
       &END EACH
     &END RESTART
     &RESTART_HISTORY  SILENT
       &EACH
         MD  5
       &END EACH
     &END RESTART_HISTORY
   &END PRINT
 &END MOTION
 &FORCE_EVAL
   METHOD  QS
   &DFT
     BASIS_SET_FILE_NAME BASIS_MOLOPT
     POTENTIAL_FILE_NAME GTH_POTENTIALS
     MULTIPLICITY  1
     CHARGE  0
     &SCF
       MAX_SCF  30
       EPS_SCF     1.0000000000000001E-05
       CHOLESKY  INVERSE
       SCF_GUESS  ATOMIC
       ADDED_MOS  20
       &DIAGONALIZATION  T
         ALGORITHM  STANDARD
       &END DIAGONALIZATION
       &OUTER_SCF  T
         EPS_SCF     1.0000000000000001E-05
         MAX_SCF  10
       &END OUTER_SCF
       &SMEAR  T
         METHOD  FERMI_DIRAC
         ELECTRONIC_TEMPERATURE     5.0000000000000007E+01
       &END SMEAR
       &MIXING  T
         METHOD  BROYDEN_MIXING
         ALPHA     4.0000000000000002E-01
         BETA     5.9999999999999998E-01
         NBUFFER  8
       &END MIXING
       &PRINT
         &RESTART  OFF
         &END RESTART
       &END PRINT
     &END SCF
     &QS
       EPS_DEFAULT     1.0000000000000000E-10
       EXTRAPOLATION  ASPC
       METHOD  GPW
     &END QS
     &MGRID
       NGRIDS  4
       CUTOFF     4.5000000000000000E+02
       REL_CUTOFF     7.0000000000000000E+01
     &END MGRID
     &XC
       DENSITY_CUTOFF     1.0000000000000000E-10
       GRADIENT_CUTOFF     1.0000000000000000E-10
       TAU_CUTOFF     1.0000000000000000E-10
       &XC_FUNCTIONAL  NO_SHORTCUT
         &PBE  T
         &END PBE
       &END XC_FUNCTIONAL
     &END XC
     &POISSON
       PERIODIC  XYZ
     &END POISSON
     &LOCALIZE  T
       EPS_LOCALIZATION     1.0000000000000001E-05
       METHOD  JACOBI
       &PRINT
         &WANNIER_CENTERS  SILENT
           IONS+CENTERS  T
         &END WANNIER_CENTERS
         &WANNIER_SPREADS  SILENT
         &END WANNIER_SPREADS
       &END PRINT
     &END LOCALIZE
     &REAL_TIME_PROPAGATION
       INITIAL_WFN  SCF_WFN
     &END REAL_TIME_PROPAGATION
     &PRINT
       &MO_CUBES  SILENT
         WRITE_CUBE  F
         NLUMO  4
         NHOMO  4
         &EACH
           MD  10
         &END EACH
       &END MO_CUBES
       &E_DENSITY_CUBE  OFF
       &END E_DENSITY_CUBE
     &END PRINT
   &END DFT
   &SUBSYS
     &CELL
       A     2.3680000000000017E+01    0.0000000000000000E+00    0.0000000000000000E+00
       B     0.0000000000000000E+00    2.3680000000000017E+01    0.0000000000000000E+00
       C     0.0000000000000000E+00    0.0000000000000000E+00    2.3680000000000017E+01
       MULTIPLE_UNIT_CELL  1 1 1
     &END CELL
     &COORD
C    2.4693850183426044E-01    2.8547282840462868E-01    2.5301218549022692E-01
N    6.1210271735609150E-03    2.5455191791803261E-01    3.8998085147655771E-02
H    2.3724846599432384E-01    2.6426665741911548E-01    2.9140425507390799E-01
H    2.9668398445903627E-01   -1.5290328363197690E-02   -3.0820662353159341E-02
H    2.0138487065825980E-01    2.1595633510148027E-01   -3.5752098814548404E-02
H   -3.4608500695534700E-02   -1.5640003385778457E-02    2.9468723867626345E-01
H    1.1744847591932983E-02    3.0465192324103091E-01    2.0346695095628381E-01
H   -7.1059895929187914E-03    2.1626308575615846E-01    5.8632372497350711E-02
Pb    1.2331911547072529E-01    1.1516251564498278E-01    1.2313187196869821E-01
Br    1.4496175422026580E-01    1.2462636004877709E-01    2.5111302274669600E-01
Br    1.0139310392630554E-01   -9.2545996918008151E-03    9.3069240967925293E-02
Br    2.4442274465027805E-01    1.2873889221794854E-01    9.2881717174751341E-02
C    4.8611398598659872E-01    2.3663920293778407E-01    2.2982218465690807E-01
N    2.4041530671587835E-01    2.8790520495868949E-01    5.1620405069414260E-03
H    4.6820295492990294E-01    1.9600991971571027E-01    2.3970581018501572E-01
H    5.2447440350209307E-01   -4.2381617188147085E-02   -3.4605903186557499E-02
H    4.3766788000194240E-01    2.2360916298334746E-01   -7.1163081539611633E-03
H    2.4108089073223260E-01    6.2283605006638362E-02    2.5296419354059752E-01
H    2.0308283029314236E-01    2.7181695547026552E-01    1.7432410838750864E-01
H    2.6704454143870793E-01    2.9157694706316650E-01    3.9237490392356744E-02
Pb    3.7166100583870326E-01    1.2050429230018864E-01    1.1680815168964476E-01
Br    3.3696611561913165E-01    1.4808078906624186E-01    2.4474524433487432E-01
Br    3.5308477938677513E-01   -1.6485449577641686E-03    1.3356283878102329E-01
Br    4.9429908980305282E-01    1.0076671883181847E-01    1.3395319944811321E-01
C    7.4111152144137971E-01    2.8082368088556287E-01    2.3931215524612315E-01
N    5.0806720379185955E-01    2.4493311963662365E-01   -5.7768973195382115E-02
H    7.0204680172681733E-01    3.0094928543818628E-01    2.2263355573599927E-01
H    7.3539796340932195E-01    6.6650093115222006E-02   -1.2285929962691289E-02
H    7.8821476135992119E-01    2.8215759709735094E-01   -4.7921647288626933E-02
H    5.5088759469041082E-01   -7.4266470064965305E-03    2.0441737731257326E-01
H    5.6851530595866318E-01    2.1371422943947418E-01    2.5644741897615270E-01
H    5.4373042175701081E-01    2.7042158662212690E-01   -6.1517095306066263E-02
Pb    6.2396474485032527E-01    1.2416699650283619E-01    1.1107277429400352E-01
Br    6.3198472818828566E-01    1.2999031942066330E-01    2.3888974841250807E-01
Br    6.1225053581017741E-01   -6.3196104915627122E-03    1.0661288087528950E-01
Br    7.5251644172122356E-01    1.4851869479267291E-01    9.4050377964760359E-02
C    1.0068109205103488E+00    2.4432280777538201E-01    2.6940432997003483E-01
N    7.2098554058158948E-01    2.4987975693357309E-01    2.5542694161640781E-03
H    1.0166152734646945E+00    2.0757930938094529E-01    2.4167714712740121E-01
H    9.5852471762828340E-01   -3.6890240769827956E-02   -3.2839185286428235E-02
H    1.0042243002882276E+00    2.2957292183862027E-01   -4.7306459160288278E-02
H    7.9593784518949728E-01   -1.8680074896341627E-02    2.8904200694074828E-01
H    7.5794060097428484E-01    2.1142896837142661E-01    1.7459411564363189E-01
H    7.1481167869617712E-01    2.3230689660727913E-01    4.2558133396532659E-02
Pb    8.7874900995467853E-01    1.3057965474751559E-01    1.2990893266369638E-01
Br    8.4745081166860992E-01    1.2266465061212688E-01    2.5064412502579031E-01
Br    8.9391624413010518E-01   -1.5174841628708732E-03    1.1135193084271693E-01
Br    9.9849209500341729E-01    1.3779416423075561E-01    1.2788590426132690E-01
C    2.3355255331518848E-01    4.8597839076952548E-01    2.5630831926631792E-01
N   -5.8691092973225577E-02    5.2838627205256450E-01   -8.7602083360164146E-03
H    1.8909135871576932E-01    4.9297469146708706E-01    2.6282428174845524E-01
H    2.7488239874272474E-01    2.2344734062629659E-01   -5.3641691448272237E-02
H    2.4617729845253900E-01    4.6172277680923884E-01    3.0540475769807732E-02
H   -5.5279729022008346E-02    2.8842616312640224E-01    2.1598740766835028E-01
H   -2.5612395063171117E-02    5.2816203223971137E-01    3.0264324777821650E-01
H   -6.1688462377171287E-02    5.4360614144016051E-01    3.2910112380637208E-02
Pb    1.1035941317703765E-01    3.8172329707566433E-01    1.1541281281000394E-01
Br    9.0703002599627811E-02    3.7969443179125151E-01    2.4847718586724848E-01
Br    1.2396073838977671E-01    2.5227051641570386E-01    1.2557218807373455E-01
Br    2.4215212488690124E-01    3.8127834865457660E-01    1.2385719910242848E-01
C    5.0290405709705299E-01    4.8091405111280833E-01    2.4359917192719743E-01
N    2.2628673310002345E-01    5.4595454645987873E-01    5.3558199773422023E-03
H    5.1281114391852478E-01    4.6524435625906152E-01    2.8518244766668388E-01
H    4.9771288375065675E-01    2.3226662574820933E-01    3.4187878851431340E-02
H    4.7896680630092558E-01    5.0846237634566771E-01    5.0197080735156357E-02
H    2.5972883502621869E-01    2.2866011852208193E-01    1.8405881711548849E-01
H    2.8703183639966368E-01    5.0230911343222351E-01    1.7965296423527688E-01
H    2.5685714823609268E-01    5.7782567932374529E-01    5.7202511623365036E-03
Pb    3.6745190871497740E-01    3.6199812572815171E-01    1.2950627181506058E-01
Br    3.6767311596315294E-01    3.7113965345352912E-01    2.5271217388864808E-01
Br    3.4556862050863696E-01    2.4494101107760113E-01    9.9897049728436937E-02
Br    4.9203368972521805E-01    3.9325549081087602E-01    9.9489827632364886E-02
C    7.2313903151449577E-01    4.8407591073566453E-01    2.1087454702142941E-01
N    4.9835233438890125E-01    4.6653839259707192E-01   -2.6429563786561354E-02
H    7.3619650993918795E-01    4.3996889679110524E-01    2.1269125228442612E-01
H    7.8906009613467931E-01    3.0600178937179323E-01    2.2822085546487979E-02
H    7.7372425538542855E-01    4.8594508966248390E-01    2.0799502248279100E-02
H    5.5483916532665090E-01    2.8012620382131798E-01    2.7033261428693045E-01
H    4.3286375114881170E-01    5.1529002555175152E-01    2.8797572027045248E-01
H    5.3910741321239919E-01    4.7839040083496365E-01   -2.9704204780491818E-02
Pb    6.1021387125299265E-01    3.7326921941773633E-01    1.1175816540193415E-01
Br    6.0438069661184191E-01    3.6522755351320263E-01    2.3326312442068534E-01
Br    6.0984147719599546E-01    2.4368815185054357E-01    1.1425144998898326E-01
Br    7.3870364946455425E-01    3.5267171895626243E-01    1.1524478994375086E-01
C    9.9687827804215856E-01    4.9770788828072460E-01    2.2018813494341474E-01
N    7.4474260657440416E-01    5.2610598715798318E-01   -5.4274744360752802E-02
H    1.0098159984101875E+00    4.5485890843482429E-01    2.0501916112584209E-01
H    9.3978267139790017E-01    2.6489725347848792E-01   -2.2622291688530232E-02
H    1.0240662463508814E+00    4.9523842456646217E-01   -1.2574949239327175E-03
H    7.8574287955688105E-01    2.0151983448919000E-01    2.3640850239789724E-01
H    6.8826941938233122E-01    5.3178573525713557E-01    2.7483974065966987E-01
H    7.3976586633116659E-01    5.6357642842372413E-01   -3.5099760017542989E-02
Pb    8.6287192282790337E-01    3.8099744473128355E-01    1.0864644100092101E-01
Br    8.8279527824208981E-01    3.9765448740838394E-01    2.3655942330043842E-01
Br    8.7085535464772568E-01    2.4904589490295403E-01    1.5348744711096693E-01
Br    9.8700754823380721E-01    3.7680975293592256E-01    1.1640074897345845E-01
C    2.2200202379875933E-01    7.7436519529348014E-01    2.1638033925147293E-01
N   -2.3986208546221778E-02    7.4078579751948093E-01    4.5646569162275677E-02
H    1.8429959450804242E-01    7.4894196692030657E-01    2.0348384646933967E-01
H    2.5444489847434371E-01    4.7277159226182319E-01   -4.5447182967630367E-02
H    2.9967377312173604E-01    7.5137181266342012E-01    4.8997444370602126E-02
H   -4.5513691341220214E-02    4.6375333716731054E-01    2.8888857844265214E-01
H    5.9072133189868523E-03    7.9958023955998303E-01    2.8239825912645461E-01
H   -4.4892797221379966E-03    7.7449512376565588E-01    6.1482426581232943E-02
Pb    1.0771876443902285E-01    6.2038866774286094E-01    1.3644961204344094E-01
Br    1.5377654292752813E-01    6.2506816307451785E-01    2.4910450165741557E-01
Br    1.2891890285587473E-01    5.0186409833742529E-01    8.8679909252338818E-02
Br    2.2257187522673796E-01    6.3978286954292662E-01    1.1163530335704971E-01
C    4.8683872255175620E-01    7.3039364039031252E-01    2.3787239341217623E-01
N    2.1130171006504150E-01    7.4158480905569890E-01    1.2544014636967188E-02
H    4.4080688976707005E-01    7.3505413165157407E-01    2.4283483671252512E-01
H    4.7760805219265556E-01    5.5159509917613181E-01   -1.0387813984790726E-02
H    4.6047013190335967E-01    8.0836523263025784E-01   -2.5646282833075395E-03
H    2.1782179796898421E-01    4.9611261996392519E-01    1.7056663510848341E-01
H    2.5304139137796122E-01    7.1418318330771258E-01    2.7200181957358105E-01
H    2.0478645795172168E-01    7.1317501308983133E-01    4.4330934485416799E-02
Pb    3.5837492464530774E-01    6.2444027896385923E-01    1.2696177559520272E-01
Br    3.2822891624426054E-01    6.4124293186356518E-01    2.4348194529863118E-01
Br    3.6372367702947045E-01    4.9719750085405512E-01    1.3682806625018781E-01
Br    4.7242159152248198E-01    6.1971688736344355E-01    1.5150332450900963E-01
C    7.5374221692509014E-01    7.7292394583373158E-01    2.4379603184233239E-01
N    5.1751561475163033E-01    7.5278193609934818E-01    3.6291227016342568E-02
H    7.8895018283234064E-01    7.8056093181053920E-01    2.1386893641818977E-01
H    7.0243074785772242E-01    4.6785586148786740E-01   -4.1983592552448249E-03
H    6.7791874148667008E-01    7.5230123079550570E-01   -3.4682767211656612E-02
H    4.6142275454568377E-01    5.5837350141608966E-01    2.3107330990354691E-01
H    5.5766981978915464E-01    7.8348145749378506E-01    2.3626884951916460E-01
H    5.5096923415627641E-01    7.8406976765437641E-01    3.5742268873476646E-02
Pb    5.9895897582333557E-01    6.1155685489717393E-01    1.0141942928697474E-01
Br    6.2576772746611831E-01    5.9090282423589791E-01    2.4231213793802134E-01
Br    6.1903771709268551E-01    5.0008071068828908E-01    7.2924281004795782E-02
Br    7.2057570751651034E-01    6.1596445100460140E-01    1.1366582468550615E-01
C    9.5404242834864439E-01    7.4844009825998181E-01    2.3499776006398856E-01
N    7.6094218328520646E-01    7.6385049688762341E-01   -2.0461085669112972E-04
H    9.2342326567232469E-01    7.4019743759812029E-01    2.6981317791572146E-01
H    1.0062612205263057E+00    5.1603895334332950E-01   -7.4769177053196620E-02
H    1.0383211356432158E+00    7.3241399363133530E-01   -1.9358532080744881E-02
H    7.2712697635453150E-01    4.8170204132732036E-01    2.9992507675814095E-01
H    7.0350551873212697E-01    7.2442146246113959E-01    1.9166728806992214E-01
H    7.7930481951949093E-01    7.5944755921399121E-01    3.5904294943861097E-02
Pb    8.4691915071015833E-01    6.2566467503247847E-01    1.3271441984922389E-01
Br    8.1652057589374238E-01    6.1912073429642789E-01    2.5234979658333528E-01
Br    8.5148967751549831E-01    5.0387182907421546E-01    1.0400889823129177E-01
Br    9.7089731089263032E-01    6.1568547271480445E-01    1.1312188779623893E-01
C    2.2057698329692521E-01    9.8611161742573505E-01    2.1105547289782056E-01
N    3.6551421459848749E-03    1.0375937821406858E+00   -2.7215888923346363E-03
H    1.8634625833945023E-01    1.0087331426132524E+00    1.8859830343133044E-01
H    2.9271237969392538E-01    7.1634491371736153E-01   -1.9986444709995620E-02
H    2.5249572393771685E-01    9.3286147915106632E-01   -5.9383750304427942E-03
H    2.7208167870060623E-02    7.3507481122136542E-01    2.9077773268113577E-01
H    3.1505128301019869E-02    9.6359386912123690E-01    2.6613576060342370E-01
H   -2.4702896687220182E-02    1.0628711197996215E+00    1.9783031398449939E-02
Pb    1.0722592643669927E-01    8.7016058735043511E-01    1.1070642647209829E-01
Br    1.0899407586367295E-01    8.9461321350160483E-01    2.4173843364152228E-01
Br    9.0051073934551459E-02    7.4902977198154352E-01    1.4758087556498750E-01
Br    2.3470987653017197E-01    8.5659932747075562E-01    9.9585997081152261E-02
C    4.7741538854929305E-01    9.7358266386509074E-01    2.5438876055331455E-01
N    2.1694113256621536E-01    1.0164372275309677E+00   -9.6347082420305662E-03
H    4.4679908955112291E-01    9.8317928407395139E-01    2.2307262057985303E-01
H    4.9852652690146415E-01    7.6383218308096390E-01   -4.9438486914349510E-02
H    5.2437960295154373E-01    1.0238503588953001E+00   -6.3529930083826999E-02
H    2.8255022811825836E-01    7.7851580663989872E-01    2.8561166296608170E-01
H    2.9462896884790191E-01    1.0339046478701310E+00    2.1385830883228504E-01
H    2.1980443903079183E-01    1.0523584012496556E+00    1.4408248422720180E-02
Pb    3.6656560194941279E-01    8.7280568638282763E-01    1.1449022754372903E-01
Br    3.5957165145480774E-01    8.4787395253289766E-01    2.5051319807210903E-01
Br    3.9296540792501566E-01    7.5509491454010991E-01    1.1782997630511348E-01
Br    4.8832919316855405E-01    8.7727726999871070E-01    1.3009629979713100E-01
C    7.3746990478437613E-01    1.0101875132865532E+00    2.2833329372698535E-01
N    4.9167932163765710E-01    1.0239624676119643E+00    1.9762637983657086E-02
H    7.1267679791287841E-01    9.7302443661538396E-01    2.3219350739878622E-01
H    6.8632404468094554E-01    7.3298787038518931E-01    4.0068238706565902E-02
H    7.7493686411576956E-01    1.0373654513245880E+00    4.7645049848001504E-02
H    5.0093689429146493E-01    8.1255946767990439E-01    2.1355648835395505E-01
H    5.6065121155070197E-01    9.9875997162674945E-01    2.7297645452945268E-01
H    5.3266427988733978E-01    1.0351954735614946E+00    3.6686687100056931E-02
Pb    6.1795497434075963E-01    8.6461209900721869E-01    1.2162106593948925E-01
Br    6.1979354234214257E-01    8.8542264125947567E-01    2.4167912940514005E-01
Br    6.0980097160282931E-01    7.4148683729011666E-01    1.4627782843774909E-01
Br    7.4347991984306860E-01    8.7659997046598725E-01    9.5014398913794956E-02
C    9.8980359058992839E-01    1.0304993825270923E+00    2.2505657986326916E-01
N    7.3944955115557864E-01    9.8042995981643977E-01   -1.3563495985264759E-02
H    9.4503065485788951E-01    1.0448920103281896E+00    2.2307516671424060E-01
H    9.7072534693149337E-01    6.9454234481424393E-01   -2.8843181558768770E-02
H    9.7574041121455568E-01    9.6122807160885160E-01    4.1201717723544133E-02
H    7.4586528259468843E-01    6.8413216319747217E-01    2.3153428266580658E-01
H    7.4601113910663197E-01    1.0241012816658275E+00    3.2187273139754352E-01
H    7.3868762283859657E-01    9.4695399259200730E-01    1.8485012570802432E-02
Pb    8.6292991082053316E-01    8.8165094036615710E-01    1.2773664873964607E-01
Br    8.4776195729528991E-01    9.1733976617644419E-01    2.4869915044292837E-01
Br    8.4579006929707268E-01    7.4662727228820258E-01    1.1457595793388456E-01
Br    9.8744931248301238E-01    8.6170223335938678E-01    1.4289340097949044E-01
C    2.2081761116151252E-01    2.7145318505280008E-01    5.1228222182206629E-01
N   -1.4112687230697458E-02    2.9425571022616981E-01    2.3633330974600411E-01
H    2.1823659524987624E-01    2.6796954350788282E-01    5.5927596568430482E-01
H    1.9735540835632198E-01   -3.5841661533207038E-02    2.4305677317306074E-01
H    2.9329952735122594E-01    2.9339468633435695E-01    2.4840323862701816E-01
H    3.8772421060569044E-02    7.5184549724986510E-03    4.4580695971023360E-01
H    6.0272518735378219E-03    2.3930810502565691E-01    4.4309516347755956E-01
H   -1.6100524648772849E-02    3.3013870528144207E-01    2.6046495418264048E-01
Pb    1.2154385394504211E-01    1.3679780719996973E-01    3.6957624616517676E-01
Br    1.0128906454963287E-01    1.2412633807036835E-01    4.9688367406795642E-01
Br    9.3433322775186470E-02    1.5062919575845216E-02    3.5951109289062311E-01
Br    2.5639181294816360E-01    1.0272095277117764E-01    3.6724256307674408E-01
C    4.8718531576765400E-01    2.0705818913667096E-01    4.8570808359263518E-01
N    2.2862471651097885E-01    2.4896092949215304E-01    2.0393573762424008E-01
H    4.8845341311272328E-01    2.2443369756426260E-01    4.4226271508239973E-01
H    4.5930932150455805E-01   -1.3035520411052987E-02    2.9695642962186170E-01
H    4.5548485219833645E-01    2.7103401397842758E-01    2.3899396821789443E-01
H    2.9141687542654521E-01   -8.1915801883243999E-03    4.2607341280499483E-01
H    2.1699445265683981E-01    1.9078828288642452E-01    4.7177091710212377E-01
H    2.0040806824475649E-01    2.1856935770642516E-01    2.1942332735461728E-01
Pb    3.7560136026354168E-01    1.2488974508599075E-01    3.5685749370498659E-01
Br    3.6378270410874053E-01    1.0427228562310785E-01    5.0378012826342522E-01
Br    3.6158385729865755E-01    3.5036096750507735E-03    3.3982591299372322E-01
Br    5.0411463706290849E-01    1.0555537944826195E-01    3.5277194569261416E-01
C    7.3889591908770935E-01    2.3622889112672063E-01    4.8621144171701502E-01
N    5.3515457417201062E-01    2.3978727445595172E-01    2.6723888303077203E-01
H    7.2512406154360798E-01    1.9339119067017521E-01    5.0409099782776901E-01
H    7.7068782115293821E-01    5.5858855973693437E-03    1.9483308635247171E-01
H    7.3528007509312887E-01    2.7807166277358447E-01    2.8686045557700296E-01
H    5.2974810894105284E-01   -4.4326012912603512E-02    5.3194204392027900E-01
H    5.2778343625922008E-01    2.8573121013308223E-01    4.9780361430788345E-01
H    5.2403372938835846E-01    2.3007583844430576E-01    3.0950395445039403E-01
Pb    6.2609050483961048E-01    1.2407159857805344E-01    3.7222631090104163E-01
Br    6.0005661286532452E-01    9.3770487775939604E-02    4.9555324047493166E-01
Br    6.2040052595177841E-01   -3.9397580055958586E-03    3.5655773776946947E-01
Br    7.4153436491373481E-01    1.0280112500351572E-01    3.9506197630728701E-01
C    9.7570919125690592E-01    2.6161270390348762E-01    5.2657501666011164E-01
N    7.4911425564177259E-01    2.1965985199370944E-01    2.1844754030256638E-01
H    9.8822279892386222E-01    2.4158909099076697E-01    5.6672874322708244E-01
H    1.0030987548948509E+00    1.8403274792312865E-02    1.8185738686674155E-01
H    1.0467762974294545E+00    2.5704722448806050E-01    2.8981456420873253E-01
H    7.1180257514650536E-01    2.4021712589936212E-02    4.8734400438731812E-01
H    7.2782407944497074E-01    2.7064089219060616E-01    5.6658594426460995E-01
H    7.1601684131071897E-01    1.9358659919106447E-01    2.3011344448391921E-01
Pb    8.5898682932562609E-01    1.4296493355401160E-01    3.7951594972037694E-01
Br    8.6510803150915383E-01    1.6210353796264870E-01    4.9838956634094783E-01
Br    8.9969782400820197E-01    1.7088978278865546E-02    3.6160446943444563E-01
Br    9.9312455864984206E-01    1.5970635696461682E-01    3.7410894193202349E-01
C    2.1471336758226253E-01    4.9769931317167787E-01    4.9148725830164547E-01
N   -1.2549403393701239E-02    4.9191438563726936E-01    2.8064987109356382E-01
H    2.1979264383199562E-01    5.3283546273578108E-01    4.6209046388123859E-01
H    2.2405670325419394E-01    3.2396041408828663E-01    2.4876000771138468E-01
H    2.3950909570373796E-01    4.4081424986615775E-01    2.5885306004988884E-01
H    5.6383383480593990E-02    2.6467123725777447E-01    4.9139724302509058E-01
H    1.5664684287471812E-02    5.4066223748069364E-01    5.3002659398833141E-01
H    2.2477096474366253E-02    4.7864786079249688E-01    3.0054166542551242E-01
Pb    1.1936250434717853E-01    3.7154225329618479E-01    3.7082732493323589E-01
Br    8.8751320298945308E-02    3.6370294899133537E-01    5.0304986016093334E-01
Br    1.6221386744045066E-01    2.5817855251530059E-01    3.6866597423219505E-01
Br    2.4512486188309179E-01    3.9979424826076254E-01    3.7487295316640673E-01
C    5.0988652445188920E-01    4.8391027163660683E-01    5.0791954089177149E-01
N    2.4495394588960986E-01    5.1161845762171465E-01    1.9852461535054686E-01
H    5.4022460536666472E-01    4.9397474160294069E-01    5.3969079616812154E-01
H    5.0150050525765832E-01    2.4242239523114040E-01    1.8427490466330290E-01
H    4.9337805868123114E-01    4.4527420349840202E-01    2.1421928852675498E-01
H    2.7527833204823965E-01    2.3192679217387172E-01    4.5589495049700574E-01
H    2.6448183503669348E-01    4.7874506223271235E-01    5.6406391567709158E-01
H    2.4218775053157326E-01    5.5628691595697777E-01    1.9824790772747011E-01
Pb    3.6891545128717035E-01    3.7491315010417936E-01    3.7605955736162866E-01
Br    3.5942669263770577E-01    4.0632876409316571E-01    4.9858791718057965E-01
Br    3.5199146602738229E-01    2.4373478420736519E-01    3.9671279253278452E-01
Br    4.9484840092387083E-01    3.3007721275840429E-01    3.7339136050284077E-01
C    7.2654227899779378E-01    5.1031347761243306E-01    4.9965329827022448E-01
N    4.5269006120822741E-01    5.1959730224059542E-01    2.4825171899237158E-01
H    6.8449209490195606E-01    5.0776397045168453E-01    4.7296557853756171E-01
H    7.7810175163832151E-01    3.0411191838631996E-01    2.3246202850946299E-01
H    6.8074487120420490E-01    4.8846365688552373E-01    1.9661834104975823E-01
H    4.8567281324926698E-01    2.6733874336622410E-01    5.5150721682085624E-01
H    5.2391369471711502E-01    5.7020090227916531E-01    4.7566839237995184E-01
H    4.2300204757139265E-01    5.0474837094564540E-01    2.1981572689482834E-01
Pb    6.1687613431467891E-01    3.6956795071008880E-01    3.6923439265107882E-01
Br    5.9951664941245919E-01    3.6315453739386588E-01    4.9237496833099237E-01
Br    6.3836126040333618E-01    2.4712958891943287E-01    3.7374713507048907E-01
Br    7.4029838674201365E-01    3.9947051599682487E-01    3.5970360287765929E-01
C    9.9266784787499251E-01    4.7718442382526743E-01    4.7099712222510032E-01
N    7.2687452043023837E-01    5.1049560291553064E-01    2.6739276107472032E-01
H    9.6698043784533838E-01    4.8916495349647415E-01    4.3552207473531174E-01
H    9.7249737962694216E-01    2.3249304244394103E-01    2.9981281112773817E-01
H    9.5797188151472923E-01    5.1527926516429012E-01    1.9978511983025216E-01
H    7.9802545043847961E-01    2.5749529567798474E-01    5.5174321302549889E-01
H    7.8202903848140903E-01    5.2046113038541297E-01    4.2806067437451550E-01
H    7.5739371439764736E-01    5.4194355628954716E-01    2.6888374692230621E-01
Pb    8.6325650499815498E-01    3.7029555712075635E-01    3.6325000103766597E-01
Br    8.5012688900473510E-01    3.6319631991766327E-01    4.8875818490722595E-01
Br    8.3091194076744823E-01    2.5426862423818203E-01    3.4573907816227578E-01
Br    9.8670247209013129E-01    3.6530177775920297E-01    3.7851523543227777E-01
C    2.0160383282554240E-01    7.4665209977303026E-01    4.8223117128470566E-01
N    1.1683317390087919E-02    7.6326063620872686E-01    2.6069556713155523E-01
H    2.0187939866122545E-01    7.5957835921877215E-01    4.3732711716933642E-01
H    2.5960634880081351E-01    5.0775437708793481E-01    2.8711353049786043E-01
H    2.0337991161092717E-01    8.1656384047472519E-01    2.1539789921931252E-01
H   -5.0906162112115454E-02    5.4523672200095330E-01    5.1453361215588100E-01
H    1.2474335261187420E-02    7.7382942919509734E-01    5.5375031990089174E-01
H    4.3417250920229453E-02    7.6602491058785338E-01    2.2954518424309422E-01
Pb    1.0725370219213576E-01    6.1541374184707132E-01    3.7324524087301730E-01
Br    7.0715420845581869E-02    6.2229257246385405E-01    4.9164747292688799E-01
Br    1.0333067685896112E-01    4.9395698150488537E-01    3.6639652115409244E-01